%nproc=
%Mem=
# TD=(NStates=1) B3LYP/6-31G(d,p)  

ABSSPCT

0 1
6   -0.24717662397672  1.37251981076405  0.08588075502332
6   1.06767946555400  0.91920987603219  -0.06392168269190
6   1.26620895673991  -0.45042273492392  -0.02716446415878
6   0.22413969062319  -1.42736034909423  0.05594245085667
6   -1.01191000506856  -0.90060101360822  -0.02908533503565
6   -1.34094491962773  0.46245321560202  -0.02403772320361
1   -0.36571613556307  2.50835261600587  -0.01522008651628
1   -2.17075781846693  0.94903613638438  -0.00563286134302
1   -1.74665485228675  -1.73231389774966  -0.08548782259270
1   0.53831145948356  -2.35981434208762  -0.05837804914167
1   2.38658120974233  -0.72931471602133  0.25309043050848
1   1.91563525506027  1.57186917200508  -0.10139931072815





