%nproc=4
%Mem=
# TD=(NStates=1) B3LYP/6-31G(d,p)  

ABSSPCT

0 1
6   -0.29773068055451  1.42629569012318  0.00967418409413
6   1.01134747471453  0.82138142973702  0.03609448385245
6   1.25694154552002  -0.45955699499719  0.00423002512042
6   0.22884466270881  -1.39708261514591  -0.01753151337564
6   -0.96836868765406  -0.84918899062955  0.07081779265252
6   -1.26264666717285  0.46877976094902  -0.07284427343440
1   -0.32702697341346  2.41071426975869  -0.02695957397752
1   -2.35882641202423  0.69511858267419  0.01365865298171
1   -1.65451363974396  -1.54996439144296  0.01029164090781
1   0.50225192558772  -2.54179051503477  -0.23329936658029
1   2.44358237005427  -0.68845767925041  -0.10687867910421
1   1.73979264142087  1.56195945775305  -0.14183842492710





