%nproc=
%Mem=
# TD=(NStates=1) B3LYP/6-31G(d,p)  

ABSSPCT

0 1
6   -0.20998651204203  1.27171408826274  0.02875219201123
6   1.11342982457160  0.87305507847883  0.03719254981495
6   1.33077874988892  -0.44634914394060  -0.05908548336634
6   0.22342403802905  -1.28207513422056  0.01979545289855
6   -1.09565370145483  -0.91678450661383  0.01695164348399
6   -1.37763258982691  0.47398835653942  -0.02592462084183
1   -0.51518556837949  2.31777805573195  -0.11064086859833
1   -2.33888954449830  0.85733234220548  -0.15291941417022
1   -1.82812732156556  -1.66282853213703  -0.04075621599806
1   0.61728797306744  -2.24350011021710  0.12473968799921
1   2.37263939307772  -0.66419689997556  -0.10952755272235
1   1.91664381709145  1.66525127013312  0.00274510992569





