%nproc=
%Mem=
# TD=(NStates=1) B3LYP/6-31G(d,p)  

ABSSPCT

0 1
6   -0.28806238749156  1.31523207916638  0.02318632057146
6   1.05238762303060  0.91221029831535  -0.08403021715841
6   1.35796924671477  -0.50018039065910  0.05448048624825
6   0.26938739125847  -1.27723350117812  -0.03236275175711
6   -1.05304189485148  -0.88609750420375  0.02718448568046
6   -1.31288872278657  0.45183528392695  -0.00724771896689
1   -0.44236479131090  2.51790290601852  0.04280728201231
1   -2.43471424037143  0.77910304207163  -0.06344850896805
1   -1.86758232977307  -1.60998644813284  0.04088603623196
1   0.24235450591210  -2.41404593486619  -0.00718215376458
1   2.25054105801699  -0.94448642162824  -0.06043288832773
1   1.91107838304007  1.46073514291780  0.34758855476314





