%nproc=4
%Mem=
# TD=(NStates=1) B3LYP/6-31G(d,p)  

ABSSPCT

0 1
6   -0.24467752734116  1.33289228482173  0.05847642371675
6   1.04560233118624  0.97772618968442  0.02433358671912
6   1.30958329759755  -0.47608886983010  -0.02340800573686
6   0.24569352040885  -1.40629005266053  -0.03859709060377
6   -1.04137330122407  -0.93831369711549  0.06181270706499
6   -1.32896232974521  0.49781303991670  -0.05491827258346
1   -0.44332746383061  2.42353754286858  -0.10236019072864
1   -2.25603340304875  1.12947908676960  -0.39810502160360
1   -1.71683861116893  -1.73190809828389  0.19731853586129
1   0.32915722045584  -2.49036592782184  0.04165106443825
1   2.41745850048425  -0.81969250912060  -0.10648723808437
1   1.85650288172947  1.56630884177490  -0.04779633983854





