%nproc=4
%Mem=
# TD=(NStates=1) B3LYP/6-31G(d,p)  

ABSSPCT

0 1
6   -0.27196426617464  1.36974304545224  0.00202891397386
6   1.05851527177463  0.95496173361365  0.01536573087074
6   1.36278311646205  -0.45387417044532  -0.03448353854237
6   0.21522967480405  -1.43989340566885  0.02049783922912
6   -1.05558107539630  -0.85696484219097  -0.03074031544379
6   -1.29127896847087  0.43266661624696  -0.02269359260021
1   -0.57242036116945  2.40718714451494  -0.04484571363396
1   -2.38424916344719  0.88302439731092  0.27482944933842
1   -1.87213551731907  -1.59109339010430  0.16832519790724
1   0.36010203700357  -2.55678079118979  -0.00252548967739
1   2.26852103594873  -0.72609577023832  0.19211654241115
1   1.93474236714470  1.47821184324397  0.03475375362681





