%nproc=4
%Mem=
# TD=(NStates=1) B3LYP/6-31G(d,p)  

ABSSPCT

0 1
6   -0.27670029677279  1.41020540830858  -0.02088069316994
6   1.10345552758647  0.91309737424719  0.03113723650561
6   1.29836879575588  -0.47582830641893  0.02618820992413
6   0.25609531602932  -1.38106505766365  0.02786262188946
6   -1.07549656581528  -0.91540954576479  -0.05115920596858
6   -1.31394670852438  0.47663961908925  0.01863850753362
1   -0.44417569055950  2.46714152369373  -0.07235523369458
1   -2.35961674606210  0.69526668635512  0.24152202665113
1   -1.84610986423104  -1.77273270629458  -0.08168107063141
1   0.52061579021709  -2.43836015097882  -0.10298910031557
1   2.32067717752620  -0.90840648148634  -0.09186163923075
1   1.88648479573607  1.64129562986099  -0.31992397147970





