%nproc=
%Mem=
# TD=(NStates=1) B3LYP/6-31G(d,p)  

ABSSPCT

0 1
6   -0.23262444122640  1.35310877654932  -0.00527421748194
6   1.07455088385464  0.92403656586336  -0.01233924960387
6   1.27836570304338  -0.50819507171710  0.02479836319679
6   0.27756137727612  -1.38830937642913  0.00475234550415
6   -1.03039468027851  -0.88444814765774  -0.02509501767058
6   -1.38589144851338  0.48009668081278  -0.01834668298989
1   -0.34844040644832  2.46467141754492  0.14709815102521
1   -2.50331229684990  0.78330198992015  0.16738356325535
1   -1.86952946508696  -1.60312321056531  0.13032853981692
1   0.52151167239494  -2.51599904915059  0.06860707867985
1   2.35984207725335  -0.44585370743599  -0.10138262770147
1   2.05843578620304  1.52945433626528  0.04093491591830





