%nproc=
%Mem=
# TD=(NStates=1) B3LYP/6-31G(d,p)  

ABSSPCT

0 1
6   -0.23181111354579  1.37156114857337  0.06812507253466
6   1.03960996015856  0.89377198412457  -0.06751510173997
6   1.25496247722111  -0.46731032724686  -0.00042900936679
6   0.28720153147580  -1.41323815820230  0.04787898562693
6   -0.99651429872972  -0.88470048988056  -0.00643121604696
6   -1.34051889957442  0.47632359247400  0.01445521276635
1   -0.41398849351887  2.42230406852956  -0.06139657337003
1   -2.43683976073744  0.87464300982795  -0.39184308704322
1   -1.91234757367865  -1.46268434458932  -0.20790458906801
1   0.46320716221609  -2.46516659460325  0.05686907262116
1   2.34484736123488  -0.73375328526445  -0.28529192058920
1   1.82654002523522  1.66262173673422  0.16715517070283





