%nproc=4
%Mem=
# TD=(NStates=1) B3LYP/6-31G(d,p)  

ABSSPCT

0 1
6   -0.25513504306978  1.34530201658483  0.03995526538482
6   1.05804722021459  0.94873716995588  -0.05939961496226
6   1.29931247028307  -0.46213669682291  0.01936304037003
6   0.22729930181482  -1.37720502568596  0.01345890014464
6   -1.07839067705838  -0.92910421876667  -0.02713469978090
6   -1.25583137776773  0.45606620858599  0.04619501799169
1   -0.50115908275968  2.53447955714788  -0.23644248548000
1   -2.29226397150541  0.79784781526967  -0.13410460557119
1   -1.85817150763958  -1.59781102415584  -0.17953111212563
1   0.39037508563299  -2.38261290570300  0.08787355970668
1   2.39118674248775  -0.82786497009507  -0.11049815923534
1   1.95155767327737  1.65606550166248  0.17510202297292





