%nproc=
%Mem=
# TD=(NStates=1) B3LYP/6-31G(d,p)  

ABSSPCT

0 1
6   -0.23075091671394  1.39105314867654  -0.02178184578795
6   1.04479055536458  0.90440398968074  0.02015125911828
6   1.35435721009826  -0.50649445848390  -0.02911185978506
6   0.29213645606536  -1.37952380841573  0.05400229304026
6   -1.05977188862655  -0.90486837387553  -0.03660633821365
6   -1.37073909538170  0.48095066079141  0.00297455974105
1   -0.65098182595707  2.40647625230103  0.16605626261895
1   -2.50274273662605  1.01617733475641  -0.00149997086182
1   -1.92752396940842  -1.57702720468801  0.06133357515675
1   0.45657004101126  -2.54821594537324  0.02467937152932
1   2.35680561570645  -0.80414042924900  -0.14802214632295
1   1.89267902546867  1.67135853263710  0.04699557000178





