%nproc=4
%Mem=
# TD=(NStates=1) B3LYP/6-31G(d,p)  

ABSSPCT

0 1
6   -0.24009933412225  1.36763210732524  -0.02096606643015
6   1.03648815821210  0.83790777449881  0.06716569764376
6   1.32384082861948  -0.43324794794256  0.00520555643203
6   0.28518438214173  -1.40721105648962  -0.03161218223732
6   -1.11464544931817  -0.91687166343030  0.03199510902499
6   -1.29759135736854  0.51094608798769  -0.00565725497442
1   -0.57952787113322  2.55221165947589  -0.16220895919751
1   -2.36447329126784  0.81854688311442  -0.07668530053497
1   -1.81749481923580  -1.49408245942675  -0.04074650694288
1   0.66067158786413  -2.44266079008407  0.05692912816075
1   2.34154910980536  -0.49343994953847  -0.29182316205099
1   1.89712761182561  1.48124070095987  -0.11453780359887





