%nproc=
%Mem=
# TD=(NStates=1) B3LYP/6-31G(d,p)  

ABSSPCT

0 1
6   -0.29852547033287  1.35093069019435  0.00149766822202
6   1.01778652224270  0.84798041834601  -0.01983183216699
6   1.33595283957739  -0.40375644201232  0.04909046920259
6   0.26996353332991  -1.35409217937319  0.04638161366319
6   -1.03852016361919  -0.87921607616259  -0.07459749564816
6   -1.29249783976205  0.50858281028490  0.00095854945226
1   -0.42663168259206  2.49083362248262  0.00868320787614
1   -2.34448482907748  0.67935334653020  0.35706418560216
1   -2.07339000157703  -1.62547266103443  0.09924998751715
1   0.64010538127447  -2.54520539925446  -0.32013006941773
1   2.27922254770574  -1.19472828927860  0.07900607434353
1   1.96166026900231  1.46350107724937  -0.28129271532424





