%nproc=4
%Mem=
# TD=(NStates=1) B3LYP/6-31G(d,p)  

ABSSPCT

0 1
6   -0.22432355244620  1.35555602817711  0.06122526189148
6   1.00750550705573  0.94405756261050  0.00256010391609
6   1.28947342533710  -0.48727626177067  -0.03626688709943
6   0.25551276379236  -1.42564884982368  -0.05028905150404
6   -1.01002815624800  -0.84755025102263  0.03606674135432
6   -1.31536123517862  0.47935510673878  -0.04607699567809
1   -0.52708254491751  2.44130241234664  -0.21824949740277
1   -2.29917755270282  0.82643436741249  -0.00996347032781
1   -1.67038737567420  -1.81847508312371  0.15325500010966
1   0.26015713797872  -2.57031113926285  0.14184857501763
1   2.30001213970140  -0.78471204980422  0.30399591545345
1   1.87528123480562  1.63750749325066  0.00203992714593





