%nproc=4
%Mem=
# TD=(NStates=1) B3LYP/6-31G(d,p)  

ABSSPCT

0 1
6   -0.20513958635990  1.34022765625088  -0.09220683413771
6   1.03680766908594  0.91231220135846  0.05866325560946
6   1.31517975185606  -0.47975105338351  0.01277635169951
6   0.23983141999651  -1.33339859547696  -0.01587029365165
6   -1.05787701411902  -0.95943442529945  -0.01156650843322
6   -1.30756082030962  0.51332015815723  0.06041232845328
1   -0.53743596203572  2.28132293250778  -0.02801424916739
1   -2.45692118225260  0.82355098398002  0.01476989951251
1   -1.90210835527214  -1.62961970033129  0.08637574099165
1   0.35336514143921  -2.45599037005115  -0.16675461654341
1   2.42198192256163  -0.56651674106316  -0.03482574644842
1   1.85998731274856  1.62063756292410  -0.00978280413408





