%nproc=4
%Mem=
# TD=(NStates=1) B3LYP/6-31G(d,p)  

ABSSPCT

0 1
6   -0.26424772353389  1.38603230595183  -0.06672050554495
6   1.00440350332741  0.92291117866112  0.04640391752413
6   1.29727798612911  -0.47955663511941  -0.04166921423962
6   0.31469730191283  -1.39641951588748  0.03044204539681
6   -1.08019020879970  -0.89693425783815  -0.03799929204780
6   -1.28573021989047  0.49284321457683  0.05477217992341
1   -0.49990137134825  2.46461592978768  -0.10750117903743
1   -2.31399649230150  0.72071144647027  0.26917634312351
1   -1.82369530493761  -1.56055198429523  -0.15999757047200
1   0.45212536941401  -2.50401209812493  -0.00645946753605
1   2.31820431468051  -0.84720580902428  0.16191197527610
1   2.01069355761523  1.35643684255327  0.02271731352939





