%nproc=4
%Mem=
# TD=(NStates=1) B3LYP/6-31G(d,p)  

ABSSPCT

0 1
6   -0.23239072020469  1.40907344521372  0.02407835875707
6   1.05766796812489  0.86874896620537  -0.04889233589436
6   1.27612796479991  -0.41417462170104  -0.00282534783576
6   0.20964471834275  -1.36848506882024  0.03722143488948
6   -1.02102958290721  -0.92514506825143  -0.01308351442144
6   -1.29444046498421  0.44126666368557  -0.00289629433225
1   -0.47607490840483  2.49529619058258  0.20495231484118
1   -2.23208496768461  0.80322315629348  -0.03614766220496
1   -1.60068708130335  -1.68212014129625  -0.13273268391303
1   0.36452899371125  -2.54589467425492  0.01539178411812
1   2.13405114801786  -0.92646041247482  0.06124610215806
1   1.82914494293219  1.70183493482730  -0.00766309809694





