%nproc=
%Mem=
# TD=(NStates=1) B3LYP/6-31G(d,p)  

ABSSPCT

0 1
6   -0.26897341532707  1.31651518854221  0.08781210319650
6   1.07049485269551  0.88357539846904  -0.08451713295233
6   1.31498995090336  -0.44998555379833  0.01403102868894
6   0.24997805626311  -1.32567677145065  0.04021001115350
6   -0.98085789430585  -0.88929405167752  -0.05236494961049
6   -1.35567524894678  0.47402594379876  0.01321174758676
1   -0.58539618148427  2.33166933357984  0.05243872186347
1   -2.40518807573231  0.84038991804477  -0.17421954620838
1   -2.01326257235052  -1.43452479229684  -0.21793859371664
1   0.27939048526685  -2.47643711390947  0.35353988141457
1   2.38018679568210  -0.76645227939940  -0.16767741547724
1   1.97106933424173  1.40322529750692  -0.02138695026223





