%nproc=
%Mem=
# TD=(NStates=1) B3LYP/6-31G(d,p)  

ABSSPCT

0 1
6   -0.29102442594455  1.39691106670845  -0.01968929468630
6   1.04571460534803  0.90135993926716  0.04943710255735
6   1.29665336729963  -0.48322916483818  0.00689266610544
6   0.27985193166737  -1.42860599583387  -0.06889358923057
6   -1.05693914115480  -0.92738827749631  0.05306012316894
6   -1.27367501878618  0.49571236082613  -0.00336350317009
1   -0.44500685508020  2.37571448469088  -0.20885122030211
1   -2.27067042189388  1.14042826879824  -0.01379497069546
1   -1.80227474915208  -1.69105564403753  -0.04108365042293
1   0.48061446064786  -2.42152793314931  0.10770946835926
1   2.13981701113343  -0.71809222372727  -0.07036495587898
1   1.89345735895223  1.79707396507188  -0.02077023612773





