%nproc=
%Mem=
# TD=(NStates=1) B3LYP/6-31G(d,p)  

ABSSPCT

0 1
6   -0.25862316113344  1.33829105162428  0.07434319254196
6   1.04952905027519  0.90899161486912  0.04815389100023
6   1.33860766189277  -0.41588005229805  -0.06154164421812
6   0.26499864739202  -1.37953794170847  0.00465106824536
6   -1.07599598293643  -0.90468067371873  0.02002736403266
6   -1.32931139514637  0.46960218646203  -0.08357774524646
1   -0.36351102724694  2.38660223626076  -0.10940241624362
1   -2.29131434109723  0.88785921101094  0.02843056886634
1   -1.90386557655171  -1.70292264209312  0.00461427832348
1   0.41551718346428  -2.33206916908449  0.23457313849551
1   2.24593232149562  -0.86109271254831  0.00754462253769
1   2.02990499247198  1.37646016633163  -0.28274026507832





