%nproc=
%Mem=
# TD=(NStates=1) B3LYP/6-31G(d,p)  

ABSSPCT

0 1
6   -0.25381581666809  1.39879402313804  0.03607602174719
6   1.10978374689823  0.94522081461415  -0.03198999380957
6   1.36040811861628  -0.48973155902762  0.02181816447954
6   0.22070310170233  -1.37602589073934  -0.02515099252175
6   -1.03733718767815  -0.97189212845876  -0.05065503220126
6   -1.37289672514571  0.50257827760580  0.04210181934756
1   -0.59496011184129  2.39320115669473  -0.10565663422852
1   -2.53927182538448  0.86839035117860  0.00144830463268
1   -2.00928056559658  -1.59441720611454  -0.06574350107583
1   0.51806843605705  -2.43618822077368  0.38712544906459
1   2.37441020357657  -0.84945711474925  0.05094241448542
1   1.90980386971369  1.53003086641217  -0.09383654626506





