%nproc=4
%Mem=
# TD=(NStates=1) B3LYP/6-31G(d,p)  

ABSSPCT

0 1
6   -0.24301071327504  1.40649963970570  0.05122128510931
6   1.04125419334198  0.90369193317133  -0.08615487054437
6   1.30849181987531  -0.44289800310947  0.05012996104339
6   0.27170284817631  -1.40383264159201  0.02760301689568
6   -1.10593900464645  -0.90550308306057  -0.07371183326290
6   -1.29023949671168  0.43946624355493  0.00540787411843
1   -0.44696716077138  2.55023662844377  0.05799739183180
1   -2.15197689387388  0.71738618257984  0.27044927820941
1   -2.05000914353936  -1.45413535220158  -0.04535590514654
1   0.61726609136372  -2.52643898157579  0.08595402505269
1   2.39155837649397  -0.81897712902666  0.10585933519762
1   1.88678209127114  1.61741427658384  -0.08625569696091





