#n B3LYP/6-31G(d) Opt Freq

 Title

0 1
H         -5.67517        2.18098        0.00000
H         -4.21116        2.18098        0.00000


