%chk=checkpoint.chk
#n B3LYP/6-31G(d) Opt Freq

 hidro

0 1
H        -10.13683        2.80200        0.00000
H         -9.42916        2.82355        0.00000

