%nproc=4
#n B3LYP/6-31G(d) Scan

 Title

0 1
H  
H   1 B1
Variables:
B1        0.5 300 0.01


