%chk=checkpoint.chk
# B3LYP/6-31G(d,p) OPT FREQ 

1poly

0 1
  C   -2.2573692    1.2423284    0.0268638
  C   -1.0167293    1.7210062   -0.0299895
  H   -3.1054597    1.9192233    0.0136673
  H   -2.4281749    0.1723464    0.0867420
  H   -0.8459833    2.7909949   -0.0898753
  H   -0.1685973    1.0441613   -0.0168042

  