%chk=checkpoint.chk
%nprocshared=4
# B3LYP/6-31G(d,p) OPT FREQ 

11poly

0 1
  C   -2.3331936    1.0853020    0.0180091
  C   -1.1218034    1.6447866   -0.0235324
  C    0.1025085    0.8191298    0.0185652
  C    1.3159814    1.3849394   -0.0232809
  C    2.5411622    0.5597108    0.0188802
  C    3.7545966    1.1257714   -0.0227849
  C    4.9797939    0.3006325    0.0195186
  C    6.1933138    0.8665615   -0.0219197
  C    7.4181600    0.0409476    0.0205444
  C    8.6321185    0.6059713   -0.0207417
  C    9.8559985   -0.2210610    0.0218371
  C   11.0708514    0.3420249   -0.0194916
  C   12.2930872   -0.4874629    0.0231020
  C   13.5092369    0.0727472   -0.0185236
  C   14.7293456   -0.7599292    0.0239700
  C   15.9469741   -0.2030490   -0.0181613
  C   17.1648917   -1.0390060    0.0241549
  C   18.3838681   -0.4851844   -0.0185457
  C   19.6000271   -1.3237701    0.0235897
  C   20.8198968   -0.7721020   -0.0195588
  C   22.0343014   -1.6123537    0.0224817
  C   23.2523516   -1.0676974   -0.0204875
  H   -3.2201183    1.7098307   -0.0140647
  H   -2.4527265    0.0078550    0.0838875
  H   -1.0439031    2.7267307   -0.0894014
  H    0.0121074   -0.2628073    0.0845035
  H    1.4053907    2.4669449   -0.0891854
  H    2.4516817   -0.5222895    0.0847573
  H    3.8440493    2.2077562   -0.0886173
  H    4.8902505   -0.7813686    0.0853233
  H    6.2830465    1.9485215   -0.0876910
  H    7.3279493   -1.0410016    0.0863140
  H    8.7228636    1.6878437   -0.0865185
  H    9.7642671   -1.3028790    0.0876646
  H   11.1634961    1.4237288   -0.0853866
  H   12.1990011   -1.5690672    0.0891116
  H   13.6045042    1.1542104   -0.0846585
  H   14.6324229   -1.8412647    0.0902700
  H   16.0451113    0.8781405   -0.0846166
  H   17.0652385   -2.1200737    0.0907870
  H   18.4845053    0.5957585   -0.0853201
  H   19.4984948   -2.4046634    0.0905042
  H   20.9228999    0.3086228   -0.0865673
  H   21.9434195   -2.6932357    0.0894669
  H   23.3849417    0.0081272   -0.0875314
  H   24.1315958   -1.7030148    0.0115648


  