%chk=checkpoint.chk
%nprocshared=4
# B3LYP/6-31G(d,p) OPT FREQ 

17poly

0 1
  C   -2.3771305    1.1264306    0.0169947
  C   -1.1620483    1.6779215   -0.0234126
  C    0.0567112    0.8440912    0.0185810
  C    1.2739630    1.4017400   -0.0222649
  C    2.4935139    0.5681796    0.0196973
  C    3.7107200    1.1260058   -0.0212756
  C    4.9304333    0.2926902    0.0206574
  C    6.1474369    0.8509047   -0.0204955
  C    7.3675603    0.0181785    0.0213947
  C    8.5841627    0.5772183   -0.0199807
  C    9.8050720   -0.2543736    0.0218521
  C   11.0209746    0.3061400   -0.0197809
  C   12.2431857   -0.5235562    0.0219729
  C   13.4579931    0.0392860   -0.0199555
  C   14.6821434   -0.7875601    0.0216891
  C   15.8953853   -0.2213819   -0.0205721
  C   17.1221758   -1.0443088    0.0209360
  C   18.3333544   -0.4737430   -0.0216646
  C   19.5634547   -1.2917015    0.0197124
  C   20.7721162   -0.7158103   -0.0231467
  C   22.0060455   -1.5279482    0.0181737
  C   23.2118667   -0.9460879   -0.0247247
  C   24.4498780   -1.7519358    0.0167006
  C   25.6527478   -1.1639177   -0.0258803
  C   26.8947477   -1.9635347    0.0158726
  C   28.0948207   -1.3697213   -0.0259850
  C   29.3403518   -2.1637541    0.0163032
  C   30.5380518   -1.5650525   -0.0245342
  C   31.7863519   -2.3546716    0.0183850
  C   32.9823155   -1.7524060   -0.0213974
  C   34.2324531   -2.5391082    0.0220738
  C   35.4273634   -1.9348167   -0.0169207
  C   36.6776673   -2.7203465    0.0268900
  C   37.8702349   -2.1215145   -0.0113862
  H   -3.2599008    1.7568178   -0.0149968
  H   -2.5038016    0.0497330    0.0818446
  H   -1.0769344    2.7593873   -0.0882938
  H   -0.0409586   -0.2372722    0.0835656
  H    1.3706973    2.4831876   -0.0872672
  H    2.3967101   -0.5132359    0.0847609
  H    3.8074284    2.2074408   -0.0863685
  H    4.8339458   -0.7887430    0.0858390
  H    6.2437035    1.9323775   -0.0857128
  H    7.2717387   -1.0633011    0.0867218
  H    8.6795551    1.6587667   -0.0853454
  H    9.7104553   -1.3359439    0.0873427
  H   11.1148747    1.3878169   -0.0853077
  H   12.1504961   -1.6052763    0.0876400
  H   13.5496083    1.1211561   -0.0856544
  H   14.5922505   -1.8694985    0.0875427
  H   15.9838058    0.8607503   -0.0864473
  H   17.0360111   -2.1265334    0.0869759
  H   18.4176602    0.6087129   -0.0877025
  H   19.4818794   -2.3742680    0.0859097
  H   20.8515245    0.3670118   -0.0892965
  H   21.9296916   -2.6108890    0.0844479
  H   23.2858919    0.1371147   -0.0908824
  H   24.3789977   -2.8352531    0.0829129
  H   25.7213345   -0.0803518   -0.0918957
  H   26.8291146   -3.0471999    0.0818513
  H   28.1584080   -0.2858384   -0.0917022
  H   29.2792504   -3.2477120    0.0819032
  H   30.5975384   -0.4809205   -0.0898544
  H   31.7286763   -3.4388484    0.0835538
  H   33.0389255   -0.6681036   -0.0863307
  H   34.1770592   -3.6234433    0.0868863
  H   35.4831439   -0.8504410   -0.0815891
  H   36.6348622   -3.8043064    0.0914609
  H   37.9546049   -1.0406285   -0.0758021
  H   38.7770792   -2.7166505    0.0219728


