%chk=checkpoint.chk
%nprocshared=4
# B3LYP/6-31G(d,p) OPT FREQ 

18 poly

0 1
  C   -2.3745863    1.1269285    0.0162542
  C   -1.1599010    1.6793760   -0.0232999
  C    0.0594651    0.8463967    0.0180381
  C    1.2763522    1.4049482   -0.0219753
  C    2.4964395    0.5721308    0.0193317
  C    3.7133639    1.1306968   -0.0208664
  C    4.9334656    0.2978998    0.0204101
  C    6.1503229    0.8565709   -0.0200543
  C    7.3706081    0.0240231    0.0211793
  C    8.5872481    0.5831260   -0.0196119
  C    9.8080244   -0.2487280    0.0215751
  C   11.0241891    0.3113657   -0.0195690
  C   12.2459199   -0.5191109    0.0215792
  C   13.4612435    0.0427668   -0.0199059
  C   14.6845379   -0.7854239    0.0212229
  C   15.8985607   -0.2207702   -0.0205556
  C   17.1241346   -1.0455929    0.0205822
  C   18.3363321   -0.4770458   -0.0214149
  C   19.5649444   -1.2973315    0.0197645
  C   20.7747712   -0.7237533   -0.0223603
  C   22.0071418   -1.5383620    0.0188929
  C   23.2140887   -0.9587253   -0.0232650
  C   24.4508047   -1.7666855    0.0180904
  C   25.6544655   -1.1802156   -0.0240127
  C   26.8958888   -1.9808727    0.0174670
  C   28.0960316   -1.3871842   -0.0245097
  C   29.3422227   -2.1803378    0.0171078
  C   30.5388517   -1.5795412   -0.0246964
  C   31.7895261   -2.3655413    0.0170613
  C   32.9829191   -1.7582899   -0.0245573
  C   34.2374540   -2.5380576    0.0173295
  C   35.4281555   -1.9255085   -0.0241270
  C   36.6856584   -2.7004512    0.0178644
  C   37.8744160   -2.0841221   -0.0234830
  C   39.1338493   -2.8559300    0.0185790
  C   40.3214202   -2.2375674   -0.0227154
  H   -3.2578268    1.7566830   -0.0152337
  H   -2.5004695    0.0500664    0.0799019
  H   -1.0755833    2.7609712   -0.0869861
  H   -0.0374506   -0.2351021    0.0818411
  H    1.3723600    2.4865232   -0.0858065
  H    2.4002683   -0.5094036    0.0832567
  H    3.8095111    2.2122381   -0.0848387
  H    4.8373870   -0.7836266    0.0845200
  H    6.2462965    1.9381186   -0.0842239
  H    7.2748736   -1.0575143    0.0855217
  H    8.6827085    1.6647091   -0.0840174
  H    9.7130898   -1.3303135    0.0861787
  H   11.1185933    1.3930319   -0.0842283
  H   12.1524460   -1.6007997    0.0864502
  H   13.5538485    1.1245804   -0.0848143
  H   14.5933673   -1.8672855    0.0863451
  H   15.9884611    0.8612658   -0.0856879
  H   17.0362363   -2.1277039    0.0859201
  H   18.4225289    0.6052882   -0.0867298
  H   19.4813290   -2.3797640    0.0852693
  H   20.8562686    0.3589436   -0.0878075
  H   21.9287521   -2.6211730    0.0845086
  H   23.2900103    0.1243771   -0.0887911
  H   24.3783916   -2.8499063    0.0837605
  H   25.7241809   -0.0966953   -0.0895682
  H   26.8298873   -3.0645032    0.0831407
  H   28.1592751   -0.3032669   -0.0900544
  H   29.2826465   -3.2643465    0.0827465
  H   30.5958106   -0.4952770   -0.0902049
  H   31.7359092   -3.4498713    0.0826437
  H   33.0342639   -0.6737488   -0.0900230
  H   34.1888643   -3.6226370    0.0828547
  H   35.4749882   -0.8407686   -0.0895616
  H   36.6408072   -3.7852037    0.0833491
  H   37.9181392   -0.9992575   -0.0889105
  H   39.0915836   -3.9407967    0.0840483
  H   40.3645515   -1.1526896   -0.0881601
  H   41.2610755   -2.7385646    0.0023891


  