%chk=checkpoint.chk
%nprocshared=4
# B3LYP/6-31G(d,p) OPT FREQ 

5poly

0 1
  C   -2.2823472    1.1885603    0.0144888
  C   -1.0576665    1.7184397   -0.0262024
  C    0.1459772    0.8630220    0.0165746
  C    1.3731950    1.3984438   -0.0248682
  C    2.5770201    0.5423855    0.0176788
  C    3.8047031    1.0767802   -0.0244509
  C    5.0077784    0.2196097    0.0178041
  C    6.2358464    0.7528878   -0.0250070
  C    7.4376105   -0.1052943    0.0170526
  C    8.6635902    0.4213259   -0.0257345
  H   -3.1538587    1.8343778   -0.0181317
  H   -2.4280369    0.1143088    0.0801596
  H   -0.9533375    2.7981540   -0.0919648
  H    0.0288014   -0.2163412    0.0825254
  H    1.4897607    2.4778561   -0.0909399
  H    2.4597920   -0.5369246    0.0839698
  H    3.9223373    2.1560408   -0.0908981
  H    4.8897936   -0.8596109    0.0844722
  H    6.3550505    1.8319714   -0.0917996
  H    7.3307069   -1.1847064    0.0838759
  H    8.8120638    1.4950933   -0.0926334
  H    9.5333686   -0.2268802    0.0063049

