%chk=checkpoint.chk
%nprocshared=4
# B3LYP/6-31G(d,p) OPT FREQ 

7poly

0 1
  C   -2.2829180    1.1350575    0.0106619
  C   -1.0678666    1.6865575   -0.0322200
  C    0.1506586    0.8527403    0.0138619
  C    1.3684941    1.4091286   -0.0295801
  C    2.5863252    0.5734154    0.0164161
  C    3.8055068    1.1268990   -0.0274070
  C    5.0208638    0.2875264    0.0184449
  C    6.2418523    0.8368573   -0.0259590
  C    7.4542959   -0.0068353    0.0196939
  C    8.6771044    0.5382756   -0.0253571
  C    9.8870193   -0.3091502    0.0201039
  C   11.1111197    0.2328296   -0.0254612
  C   12.3187703   -0.6169704    0.0199003
  C   13.5411973   -0.0824434   -0.0254925
  H   -3.1658594    1.7650057   -0.0244212
  H   -2.4094003    0.0586222    0.0805940
  H   -0.9827021    2.7676656   -0.1022364
  H    0.0522631   -0.2282526    0.0839917
  H    1.4667617    2.4900806   -0.0997964
  H    2.4864250   -0.5073973    0.0867436
  H    3.9067552    2.2075469   -0.0978859
  H    4.9175623   -0.7929405    0.0890969
  H    6.3467525    1.9171338   -0.0967992
  H    7.3473168   -1.0869198    0.0907300
  H    8.7854780    1.6181847   -0.0965675
  H    9.7772725   -1.3889559    0.0914753
  H   11.2226063    1.3124186   -0.0969480
  H   12.2191690   -1.6968032    0.0913735
  H   13.6825542    0.9919628   -0.0970185
  H   14.4152093   -0.7248206    0.0090751


  