%chk=checkpoint.chk
%nproc=4
# B3LYP/6-31G(d,p) OPT FREQ TD

Benzeno

0 1
  C   -1.6783860    1.8887098   -0.1044913
  C   -0.2832862    1.7841612   -0.0942200
  C    0.3234015    0.5249044   -0.0348545
  C   -0.4649925   -0.6297922    0.0141956
  C   -1.8600862   -0.5252484    0.0039543
  C   -2.4667816    0.7340056   -0.0553662
  H   -2.1477462    2.8629042   -0.1504290
  H   -3.5460684    0.8148667   -0.0632582
  H   -2.4700075   -1.4185595    0.0419286
  H    0.0043677   -1.6039838    0.0600793
  H    1.4026839    0.4440160   -0.0268796
  H    0.3266620    2.6774557   -0.1321933


