%chk=29.chk
# B3LYP/6-31G(d,p) OPT FREQ

29poly

0 1
  C    1.7863245    4.0527205   -0.8786659
  C    2.9195215    4.3883570   -1.5122107
  C    4.2217012    4.0914876   -0.8622251
  C    5.3993107    4.4663464   -1.3823917
  C    6.6632472    4.0992112   -0.6973676
  C    7.8596296    4.4995937   -1.1519433
  C    9.1081858    4.0752204   -0.4744064
  C   10.3092531    4.4943145   -0.8993956
  C   11.5577348    4.0247485   -0.2544146
  C   12.7558791    4.4600368   -0.6716967
  C   14.0117037    3.9559019   -0.0703782
  C   15.2033634    4.4069147   -0.4895160
  C   16.4682367    3.8771825    0.0675596
  C   17.6526969    4.3439421   -0.3543228
  C   18.9252001    3.7959524    0.1649609
  C   20.1035892    4.2780626   -0.2559058
  C    0.4213632    4.2660587   -1.4301838
  C   -0.6225267    3.9918072   -0.6332700
  C   -2.0615797    4.1090387   -0.9994773
  C   -2.9398359    3.9226052    0.0000000
  C   -4.6850987    3.9226052    0.0000000
  C   -5.9898097    3.9226052    0.0000000
  C   -7.0899659    4.0345188   -1.0246268
  C   -8.3652583    3.9582692   -0.5591718
  C   -9.6197514    4.1289522   -1.3497335
  C  -10.8135478    3.9882499   -0.7221269
  C  -12.1408102    4.2139150   -1.3657172
  C  -13.2833302    4.0062241   -0.6700896
  C  -14.6394621    4.2848167   -1.2272882
  C  -15.7600536    4.0110438   -0.5218043
  C  -17.1230608    4.3419858   -1.0317505
  C  -18.2408017    4.0066281   -0.3510240
  C  -19.5998341    4.3887095   -0.8344338
  C  -20.7241719    3.9987986   -0.1969927
  C   21.3811621    3.7177588    0.2357147
  C   22.5554211    4.2138909   -0.1793663
  C   23.8355421    3.6460813    0.2954864
  C   25.0075145    4.1535285   -0.1109723
  C  -22.0744125    4.4294001   -0.6621194
  C  -23.2083980    3.9933147   -0.0755395
  C  -24.5484196    4.4684293   -0.5237497
  C  -25.6916434    3.9945837    0.0114188
  C  -27.0218500    4.5092635   -0.4184098
  C  -28.1725992    4.0053362    0.0688547
  C  -29.4941029    4.5541690   -0.3408944
  C  -30.6504940    4.0267221    0.1038054
  C  -31.9645030    4.6042578   -0.2853024
  C  -33.1249536    4.0586445    0.1225568
  C  -34.4325040    4.6596223   -0.2470293
  C  -35.5958119    4.1000476    0.1293271
  C  -36.8977308    4.7194780   -0.2235422
  C  -38.0629784    4.1491470    0.1260703
  C  -39.3599720    4.7823093   -0.2141954
  C  -40.5263776    4.2036756    0.1131951
  C  -41.8191447    4.8461331   -0.2192088
  C  -42.9859223    4.2614044    0.0910483
  C  -44.2744120    4.9094348   -0.2380866
  C  -45.4392717    4.3269886    0.0590852
  H  -46.3729210    4.8214627   -0.1911329
  H  -45.4760181    3.3589950    0.5499990
  H  -44.2838550    5.8781869   -0.7303998
  H  -42.9913149    3.2960752    0.5918671
  H  -41.8190752    5.8102497   -0.7225035
  H  -40.5282484    3.2479596    0.6319702
  H  -39.3629710    5.7361699   -0.7365277
  H  -38.0608847    3.2080433    0.6707776
  H  -36.9050603    5.6581353   -0.7725996
  H  -35.5885694    3.1790190    0.7071672
  H  -34.4453266    5.5775206   -0.8299512
  H  -33.1112603    3.1639203    0.7401243
  H  -31.9841870    5.4949670   -0.9087189
  H  -30.6287226    3.1655360    0.7670335
  H  -29.5224156    5.4101932   -1.0107516
  H  -28.1406528    3.1860615    0.7827592
  H  -27.0610182    5.3219707   -1.1396107
  H  -25.6470514    3.2267135    0.7796813
  H  -24.6008654    5.2281619   -1.2996701
  H  -23.1488888    3.2872048    0.7489165
  H  -22.1418959    5.1258514   -1.4940970
  H  -20.6490634    3.3650699    0.6831861
  H  -19.6816847    5.0116711   -1.7214093
  H  -18.1534361    3.4551183    0.5819244
  H  -17.2132385    4.8824298   -1.9703141
  H  -15.6717820    3.5495428    0.4589003
  H  -14.7222159    4.7360525   -2.2122055
  H  -13.2188810    3.6393080    0.3518858
  H  -12.1852136    4.5723446   -2.3901451
  H  -10.8177521    3.7171355    0.3316650
  H   -9.5738880    4.3937190   -2.4017802
  H   -8.5078235    3.7821473    0.5053187
  H   -6.8793313    4.2052881   -2.0758596
  H   -6.3531927    3.8418401    1.0207359
  H   -4.6846674    4.0432962   -1.0773376
  H   -2.5467165    3.7355614    0.9959345
  H   -2.3850216    4.3285803   -2.0118452
  H   -0.4005413    3.6533052    0.3781089
  H    0.2735971    4.6323115   -2.4418456
  H    1.8677279    3.5936908    0.1053899
  H    2.8859344    4.8674883   -2.4866343
  H    4.2167948    3.5393209    0.0758294
  H    5.4301313    5.0309755   -2.3103948
  H    6.6153170    3.4755170    0.1930584
  H    7.9184787    5.1299727   -2.0355489
  H    9.0464477    3.3959429    0.3731736
  H   10.3729008    5.1766870   -1.7434549
  H   11.4991679    3.3014012    0.5558892
  H   12.8118191    5.1847046   -1.4805399
  H   13.9640580    3.1969323    0.7072520
  H   15.2469198    5.1666757   -1.2664492
  H   16.4330408    3.0891136    0.8162750
  H   17.6842205    5.1329707   -1.1022267
  H   18.9004302    2.9842532    0.8883736
  H   20.1259958    5.0911217   -0.9780124
  H   21.3633970    2.8874994    0.9379629
  H   22.5722994    5.0457593   -0.8799028
  H   23.8215902    2.8024554    0.9817705
  H   25.0226649    4.9985502   -0.7956707
  H   25.9692590    3.2200996   -0.1109723


