%nproc=4
%Mem=2Gb
# TD=(NStates=1) B3LYP/6-31G(d,p)  

ABSSPCT

0 1
6   -0.28424546014005  1.43517291679467  -0.07885588157489
6   1.02459946700593  0.90720034009172  0.04003896804654
6   1.25611064923123  -0.49813806362582  -0.01208577886811
6   0.23646465654949  -1.42417241804724  -0.03783359409523
6   -0.97412215965337  -0.90809591885410  0.09527791288827
6   -1.27965824401017  0.47884728439043  -0.00187956480360
1   -0.50228943437551  2.45208955714950  0.12677947618834
1   -2.39727188298022  0.79762654339104  -0.22326312978568
1   -1.93109453417052  -1.46359333419265  0.03832802677258
1   0.57587953079516  -2.52484778432070  -0.23961215114068
1   2.46759324627211  -0.68310093219644  -0.06969514283895
1   2.02198268086679  1.51613844611984  0.29123433731809





