%nproc=4
%Mem=2Gb
# TD=(NStates=1) B3LYP/6-31G(d,p)  

ABSSPCT

0 1
6   -0.30378308905888  1.40879136994400  -0.05459961583937
6   1.14425083721560  0.91261183942589  0.06420456619250
6   1.30515257612755  -0.42403974504525  -0.00187255474878
6   0.22796016983291  -1.39344364130390  -0.04798987660452
6   -1.05506671234862  -0.89659228228697  0.04156677069505
6   -1.32215234583184  0.42355259059053  -0.01898276021643
1   -0.47486983431092  2.46939223167000  0.16495471163601
1   -2.27507899285606  0.68466187326697  -0.07849201826494
1   -1.88166339235797  -1.55468122395646  0.22744556511919
1   0.36094628310300  -2.52367019148235  0.03830928002959
1   2.37061437155825  -0.96852994575771  -0.10500763724923
1   1.91349315246337  1.56121424544115  0.00123649601873





