%nproc=4
%Mem=2Gb
# TD=(NStates=1) B3LYP/6-31G(d,p)  

ABSSPCT

0 1
6   -0.27761135086073  1.35159318816407  -0.03631314627782
6   0.99929909250524  0.89453018891964  0.02776247695473
6   1.31914750090330  -0.48162122499456  -0.01434456891291
6   0.23756251224831  -1.37964965648549  -0.02380215113973
6   -0.99666923531476  -0.88253316022771  0.04129352835706
6   -1.30625796318462  0.51076004152988  -0.00698491409328
1   -0.32960469560950  2.49080766797654  0.06368490353430
1   -2.22990799378223  0.63518326553972  -0.22319232790157
1   -1.97660403677599  -1.59607438381648  0.32796401516046
1   0.41565195622572  -2.50695040462118  -0.26076532342015
1   2.50582900068721  -0.68623934227418  0.06450500388267
1   1.92608487682667  1.52954032144799  0.17066334444945





