%nproc=4
%Mem=2Gb
# TD=(NStates=1) B3LYP/6-31G(d,p)  

ABSSPCT

0 1
6   -0.22747210554229  1.30540879856273  -0.01379971685219
6   1.04709443083554  0.90087479659396  0.02130095807340
6   1.40619207745820  -0.48258296193652  0.03742834087944
6   0.25338601652820  -1.30319228937125  -0.05043208285646
6   -1.09073685399646  -0.87604794810290  -0.04553410563391
6   -1.39089653974384  0.46594926800442  0.03576737409908
1   -0.27153803508731  2.38851067427182  -0.26591281617902
1   -2.35068898870307  0.80939554808139  0.22298728924361
1   -1.87007105153424  -1.66820142279735  0.17994177818267
1   0.44626028049764  -2.35641613395608  0.11547250913056
1   2.41856328224291  -0.84746246684292  0.08244070818625
1   1.67154771405949  1.58872965061542  -0.10455963910000





