%nproc=4
%Mem=2Gb
# TD=(NStates=1) B3LYP/6-31G(d,p)  

ABSSPCT

0 1
6   -0.24214490877206  1.40319916938553  0.02712114658982
6   1.07109426973844  0.88188531434501  -0.00869209018690
6   1.29577019467220  -0.45422481729363  -0.01134455201495
6   0.23505193440884  -1.40512049140118  0.02975732925565
6   -1.02447557001883  -0.91337583840569  -0.01143715659432
6   -1.32091646962752  0.46633523203596  -0.03629895700029
1   -0.64323058885160  2.57841373943916  0.06334608894065
1   -2.30677543447442  0.84226349393064  0.04531014476440
1   -1.84195752684886  -1.59128752087705  0.06812285613017
1   0.55361798934051  -2.37618404967983  0.01584737425282
1   2.28132458248685  -0.83265283368349  -0.08753644401226
1   1.82897911955466  1.60249002048264  0.02332578476596





