%nproc=4
%Mem=2Gb
# TD=(NStates=1) B3LYP/6-31G(d,p)  

ABSSPCT

0 1
6   -0.24253586312381  1.37935818304574  0.09452398987931
6   1.05115407889201  0.93145310915359  -0.08061665818175
6   1.33148233258374  -0.43849444460484  0.03335664777798
6   0.21518495981399  -1.42988096987518  -0.02801314172084
6   -1.03299852228960  -0.89515440150233  -0.04613054726984
6   -1.32572902914092  0.46181960325226  0.01705834149907
1   -0.47153401979122  2.50887489381057  -0.06889160775418
1   -2.31528161757678  0.72701956775409  -0.00690332717942
1   -1.91503412877040  -1.50088620252242  -0.13161076947342
1   0.36472466536664  -2.57941097447593  0.41034898321067
1   2.55872282347768  -0.83316528366178  0.21874349908627
1   1.83331919755139  1.61185399756542  -0.22845981144632





