%nproc=4
%Mem=2Gb
# TD=(NStates=1) B3LYP/6-31G(d,p)  

ABSSPCT

0 1
6   -0.32725500697279  1.35039493841650  0.06961245082730
6   1.06579327819023  0.89725367804607  -0.01567732196801
6   1.35876971317806  -0.49265495131388  -0.04980666411445
6   0.17045531796011  -1.33039366075025  0.03481531658374
6   -0.98584513062563  -0.87662914965228  0.00534662438212
6   -1.29942439789713  0.48328239160331  -0.10922706529715
1   -0.43282810694632  2.47899846180703  0.15816050403953
1   -2.24991493975615  0.58397565326825  0.22057949991712
1   -1.78996714709942  -1.76179995076793  0.10241410332850
1   0.32960445641048  -2.38517330671264  0.25343327256479
1   2.35501714620739  -0.83492954479904  -0.03402587313430
1   1.95881987534906  1.51943891220587  0.11265230923216





