%nproc=4
%Mem=2Gb
# TD=(NStates=1) B3LYP/6-31G(d,p)  

ABSSPCT

0 1
6   -0.26661507939619  1.33273801081635  -0.02386218781339
6   1.07685877568169  0.90498052779299  0.00433969123952
6   1.36080109492420  -0.47518764141948  0.01670359515769
6   0.30383350979121  -1.33185353175062  -0.05064507889798
6   -1.10497685122719  -0.93456185003217  0.05260435389132
6   -1.35531188822099  0.48884412759787  -0.04238127395813
1   -0.66389265316171  2.39560501799737  0.12629208350861
1   -2.31864693031690  1.05376045368924  0.17026951517828
1   -2.02408999997103  -1.61903206474301  0.00702126602112
1   0.43673926814930  -2.29187630725786  0.18717103873279
1   2.41320564689488  -0.92466972244980  -0.10430543691807
1   2.02430414246065  1.51721822308742  0.20923464954591





