%nproc=4
%Mem=2Gb
# TD=(NStates=1) B3LYP/6-31G(d,p)  

ABSSPCT

0 1
6   -0.28966312477022  1.41403429954040  -0.06081587169903
6   1.03393572575651  0.85109815957546  -0.01013452943832
6   1.32959481604562  -0.45897148284410  0.03635955826985
6   0.25922827862388  -1.39509666099499  -0.01732490712228
6   -1.02540586075452  -0.86752391020171  -0.03042452317336
6   -1.34309725296541  0.46739454129832  0.08837286556247
1   -0.56615435771315  2.44079330444365  0.04263358881810
1   -2.32580862328507  0.89254848642108  0.01704205295414
1   -1.69324281983082  -1.64577080601668  -0.10752041450135
1   0.48372349292854  -2.50018925175270  -0.07414326722530
1   2.39149053821344  -0.83415834720037  0.18678602960719
1   2.09964134266784  1.42835120738436  -0.07699775534947





