%nproc=4
%Mem=2Gb
# TD=(NStates=1) B3LYP/6-31G(d,p)  

ABSSPCT

0 1
6   -0.23628957886574  1.31996092735389  0.08090283405609
6   1.09559518621516  0.89615135291733  -0.04554863955950
6   1.31687236885305  -0.40789973681069  -0.01884546867705
6   0.26679234878586  -1.37218558842416  0.09354045740607
6   -1.07886052435456  -0.89084589376528  0.00388019960877
6   -1.33288878690520  0.46143347406694  -0.07167380470919
1   -0.44001455462856  2.22641275359021  0.34367545486036
1   -2.40750353435710  0.77784217205068  -0.32538920097399
1   -2.00518837315356  -1.42801509788525  -0.06720501595111
1   0.30689096496405  -2.45744950191114  -0.11291613765862
1   2.43030461792492  -0.72665754387149  -0.30408294441811
1   1.74534652209210  1.61256631963271  -0.11887583342944





