%nproc=4
%Mem=2Gb
# TD=(NStates=1) B3LYP/6-31G(d,p)  

ABSSPCT

0 1
6   -0.24595585181001  1.31103137470077  -0.06724208080441
6   1.07376020890474  0.87789950717810  0.03520974818235
6   1.35273313020909  -0.43425639722609  -0.01902745540707
6   0.27974605860740  -1.38242093643650  -0.04365078436832
6   -1.05829865488548  -0.86989799347436  0.00067675551315
6   -1.36862062447311  0.46876969399636  0.07379124642126
1   -0.57610185308465  2.45414029796839  -0.13658363699399
1   -2.38487871396366  0.93310017152170  0.07492515620536
1   -2.05857516553777  -1.35444499846825  -0.10066600261714
1   0.47251370263205  -2.49263515896671  0.10279134488303
1   2.39409796337049  -0.70720336827066  0.28937957169330
1   1.80056793716589  1.54274683655825  0.06022126080971





