%nproc=4
%Mem=2Gb
# TD=(NStates=1) B3LYP/6-31G(d,p)  

ABSSPCT

0 1
6   -0.20880835058104  1.33921028194883  0.02464057803033
6   1.09491696141237  0.93522598680595  -0.01707032079063
6   1.32073887026244  -0.44740565854926  -0.03010664942395
6   0.26741894666326  -1.34522878381295  0.06593132702997
6   -1.15200583030629  -0.89773217994063  -0.02975023614490
6   -1.32417631240832  0.41183211730551  0.04133662441431
1   -0.51014573831461  2.50995263895447  -0.00376857326648
1   -2.31743908762791  0.79452843660350  -0.22250434317675
1   -1.92852274257893  -1.66220025152183  -0.34482892296508
1   0.38409950195505  -2.52642281276497  0.03973508274814
1   2.46017325781653  -0.76508441017251  -0.07228513981519
1   1.94833817715059  1.68296914217876  -0.12209842482865





