%nproc=4
%Mem=2Gb
# TD=(NStates=1) B3LYP/6-31G(d,p)  

ABSSPCT

0 1
6   -0.29973639340755  1.38504837766862  -0.07140749199121
6   1.06809882202900  0.88046248177575  0.06431368489383
6   1.29936766932387  -0.45957723018970  0.01686212696787
6   0.24506073812282  -1.42768343768971  -0.06888388061119
6   -1.04009609776487  -0.89310627920095  0.07933461096814
6   -1.26343721846900  0.48441418228291  -0.04030546556931
1   -0.71912039913001  2.41269733267685  0.06739733115896
1   -2.31803960414931  0.82773727568148  0.18720278874647
1   -1.88697919235892  -1.38902917991688  0.06387495929507
1   0.58065702870363  -2.35804566794633  -0.04839843263599
1   2.33217032029937  -0.82535112526674  -0.08927384399567
1   1.91806487522052  1.69356198516249  0.06761165714374





