%nproc=4
%Mem=2Gb
# TD=(NStates=1) B3LYP/6-31G(d,p)  

ABSSPCT

0 1
6   -0.27178496914895  1.35807469093325  -0.02867511886602
6   1.07762483204757  0.88795238754437  0.00805162406823
6   1.30794102740174  -0.40618663986094  -0.01120640132509
6   0.22729606754427  -1.38566507024151  0.00697735416145
6   -1.03635354277730  -0.91337862180600  -0.02953764920351
6   -1.33613803209720  0.46186992919275  0.03846519638854
1   -0.42227716774348  2.41038760847485  0.11116817724045
1   -2.27114944594554  1.03500188040115  0.11258983874312
1   -1.82807236374925  -1.76104895771182  -0.09580905341112
1   0.45160406043017  -2.37752205635374  0.00374696576252
1   2.44363827640730  -0.84801521553336  0.31188228994718
1   2.02218337583848  1.43451356308935  -0.21734083057486





