%nproc=4
%Mem=2Gb
# TD=(NStates=1) B3LYP/6-31G(d,p)  

ABSSPCT

0 1
6   -0.25132397697026  1.39284180676108  0.06030393618614
6   1.08688321365541  0.91134102618126  0.00789122353458
6   1.29825226546906  -0.46786716283906  -0.01083103613670
6   0.23375855134277  -1.35487312499917  -0.01195062193674
6   -1.06234852805605  -0.91263090298579  -0.01227803044666
6   -1.29240556599137  0.45250722824302  -0.04508216363129
1   -0.48896175956177  2.51115270361790  -0.02593965243281
1   -2.38220543198809  0.74590204850384  -0.10799650262884
1   -1.96188821641154  -1.67706221916854  0.20334626662701
1   0.49735904463560  -2.53960910465655  0.34173059149169
1   2.47615380616850  -0.81001430281217  -0.21631342668021
1   1.70616402230841  1.56953772842366  -0.02462976470395





