%chk=checkpoint.chk
%nprocshared=4
# B3LYP/6-31G(d,p) OPT FREQ 

13poly

0 1
  C   -2.3713909    1.1050973    0.0189630
  C   -1.1568512    1.6576606   -0.0227989
  C    0.0628352    0.8251081    0.0188858
  C    1.2793185    1.3843254   -0.0231995
  C    2.5003617    0.5528673    0.0185223
  C    3.7162773    1.1134609   -0.0233855
  C    4.9384836    0.2837560    0.0184558
  C    6.1534418    0.8464819   -0.0231339
  C    7.3772484    0.0191994    0.0188888
  C    8.5910611    0.5844895   -0.0222880
  C    9.8165551   -0.2402180    0.0199422
  C   11.0293096    0.3274388   -0.0208417
  C   12.2561162   -0.4952485    0.0215545
  C   13.4682178    0.0738659   -0.0190220
  C   14.6955378   -0.7480242    0.0234179
  C   15.9076302   -0.1788938   -0.0172929
  C   17.1344463   -1.0015596    0.0250114
  C   18.3472155   -0.4339580   -0.0162403
  C   19.5726215   -1.2588005    0.0257539
  C   20.7865507   -0.6938330   -0.0163565
  C   22.0100837   -1.5215591    0.0252335
  C   23.2252761   -0.9594694   -0.0178168
  C   24.4470972   -1.7898232    0.0234048
  C   25.6632142   -1.2299658   -0.0203751
  C   26.8832281   -2.0621097    0.0206460
  C   28.0976055   -1.5093723   -0.0230826
  H   -3.2547299    1.7347138   -0.0128146
  H   -2.4970480    0.0283526    0.0847269
  H   -1.0728636    2.7391698   -0.0885433
  H   -0.0334638   -0.2563108    0.0847076
  H    1.3743591    2.4658756   -0.0889792
  H    2.4058353   -0.5286899    0.0842749
  H    3.8101423    2.1951026   -0.0890599
  H    4.8456799   -0.7979561    0.0840767
  H    6.2453499    1.9282975   -0.0886447
  H    7.2866101   -1.0627082    0.0843256
  H    8.6807522    1.6664976   -0.0876069
  H    9.7280333   -1.3223150    0.0851895
  H   11.1170915    1.4096078   -0.0860019
  H   12.1690541   -1.5774747    0.0866828
  H   13.5549889    1.1561154   -0.0841356
  H   14.6087768   -1.8302759    0.0885775
  H   15.9946738    0.9033243   -0.0825367
  H   17.0466556   -2.0837168    0.0903988
  H   18.4357998    0.6481162   -0.0818053
  H   19.4827511   -2.3407648    0.0915434
  H   20.8774743    0.3880208   -0.0823743
  H   21.9177555   -2.6032909    0.0915010
  H   23.3185770    0.1221544   -0.0842970
  H   24.3528794   -2.8713879    0.0900858
  H   25.7589434   -0.1485589   -0.0871980
  H   26.7995842   -3.1435853    0.0874643
  H   28.2230167   -0.4326818   -0.0900115
  H   28.9810624   -2.1388598    0.0082075


  