%chk=./chk/13.chk
# B3LYP/6-31G(d,p) OPT FREQ

13poly

0 1
  C    0.1934647    0.3554893   -0.0853639
  C    1.1082607    0.5926589   -1.0284880
  C    2.4491569   -0.0269834   -0.9680431
  C    3.3590194    0.2214546   -1.9264921
  C    4.7351772   -0.3421823   -1.9730298
  C    5.2574001   -1.1812822   -1.0531611
  C    6.6346974   -1.7470897   -1.0972516
  C    7.5416675   -1.4973505   -2.0653938
  C    8.9191070   -2.0594581   -2.1148250
  C    9.4526867   -2.8939679   -1.1969793
  C   10.8332627   -3.4517738   -1.2530702
  C   11.7287215   -3.1988907   -2.2308670
  C   13.1074188   -3.7532531   -2.2882456
  C   13.6563942   -4.5773762   -1.3782467
  C   15.0443228   -5.0578317   -1.5513930
  C   15.6164659   -5.8754115   -0.6573580
  C   17.0058729   -6.3426315   -0.8467529
  C   17.5935256   -7.1560457    0.0405611
  C   18.9847625   -7.6122384   -0.1619281
  C   19.5853609   -8.4218200    0.7201259
  C   20.9779435   -8.8693090    0.5076725
  C   21.5878420   -9.6758416    1.3861071
  C   22.9812437  -10.1175874    1.1672720
  C   23.5964994  -10.9221922    2.0436929
  C   24.9897710  -11.3606814    1.8213979
  C   25.6087711  -12.1617528    2.6915436
  H    0.4077374   -0.2996642    0.7538279
  H    0.8532782    1.2546401   -1.8518531
  H    2.6720266   -0.6815002   -0.1344087
  H    3.0865587    0.8853943   -2.7428439
  H    5.3236240   -0.0284692   -2.8242042
  H    4.6643959   -1.4914208   -0.2030782
  H    6.8845779   -2.4016596   -0.2731656
  H    7.2921926   -0.8436797   -2.8898944
  H    9.5012161   -1.7464162   -2.9705283
  H    8.8699003   -3.2056942   -0.3406686
  H   11.0984670   -4.1030163   -0.4305459
  H   11.4697277   -2.5498723   -3.0558004
  H   13.7048370   -3.4533866   -3.1453950
  H   13.1035671   -4.9046851   -0.5060354
  H   15.6099043   -4.7372556   -2.4235975
  H   15.0576941   -6.1993143    0.2176728
  H   17.5586418   -6.0156086   -1.7247298
  H   17.0455246   -7.4849912    0.9205453
  H   19.5275351   -7.2806840   -1.0444124
  H   19.0463180   -8.7547428    1.6041586
  H   21.5132227   -8.5345946   -0.3781636
  H   21.0550470  -10.0113821    2.2729518
  H   23.5120142   -9.7811328    0.2793911
  H   23.0677295  -11.2594750    2.9323161
  H   25.5274141  -11.0297889    0.9367550
  H   25.1058907  -12.5138755    3.5873867
  H   26.6326463  -12.4718674    2.5090991
  H   -0.7846746    0.8211394   -0.1499345