%chk=checkpoint.chk
%nprocshared=4
# B3LYP/6-31G(d,p) OPT FREQ 

15poly

0 1
  C   -2.3816678    1.1194763    0.0176134
  C   -1.1662918    1.6702707   -0.0232757
  C    0.0520247    0.8358199    0.0192617
  C    1.2695164    1.3928823   -0.0220810
  C    2.4887646    0.5589034    0.0203676
  C    3.7060422    1.1164983   -0.0211461
  C    4.9258006    0.2832712    0.0211579
  C    6.1425479    0.8419623   -0.0206037
  C    7.3633251    0.0102217    0.0214965
  C    8.5791674    0.5708422   -0.0205261
  C    9.8015821   -0.2584893    0.0213520
  C   11.0160912    0.3050101   -0.0208419
  C   12.2407566   -0.5209700    0.0208525
  C   13.4535568    0.0462411   -0.0213183
  C   14.6808925   -0.7757133    0.0202793
  C   15.8918031   -0.2043926   -0.0216277
  C   17.1218305   -1.0222429    0.0199669
  C   18.3309950   -0.4471316   -0.0215076
  C   19.5632221   -1.2616041    0.0201224
  C   20.7711437   -0.6838090   -0.0209477
  C   22.0046361   -1.4963501    0.0206568
  C   23.2120593   -0.9175026   -0.0202723
  C   24.4457204   -1.7298405    0.0211635
  C   25.6533752   -1.1515410   -0.0200107
  C   26.8863412   -1.9650441    0.0211170
  C   28.0946689   -1.3882534   -0.0205879
  C   29.3266293   -2.2034108    0.0201999
  C   30.5356012   -1.6281722   -0.0220343
  C   31.7660674   -2.4447468    0.0185433
  C   32.9732974   -1.8764467   -0.0235806
  H   -3.2640846    1.7503359   -0.0148007
  H   -2.5089153    0.0429008    0.0832749
  H   -1.0806011    2.7516439   -0.0889727
  H   -0.0461466   -0.2454416    0.0850439
  H    1.3666823    2.4742440   -0.0878857
  H    2.3917270   -0.5224324    0.0861989
  H    3.8027990    2.1978828   -0.0870138
  H    4.8296375   -0.7981316    0.0870593
  H    6.2381585    1.9234492   -0.0865420
  H    7.2687242   -1.0713098    0.0874581
  H    8.6728689    1.6524974   -0.0865042
  H    9.7093586   -1.3402226    0.0873185
  H   11.1070666    1.3869011   -0.0867826
  H   12.1516646   -1.6029722    0.0867200
  H   13.5411556    1.1284177   -0.0871063
  H   14.5953635   -1.8580203    0.0859181
  H   15.9758149    0.8780804   -0.0871447
  H   17.0397197   -2.1048393    0.0852746
  H   18.4118569    0.6355972   -0.0866898
  H   19.4837044   -2.3444185    0.0850884
  H   20.8499379    0.3990873   -0.0858371
  H   21.9263732   -2.5792716    0.0853949
  H   23.2902221    0.1654472   -0.0850216
  H   24.3672948   -2.8127532    0.0858748
  H   25.7321932   -0.0686429   -0.0848179
  H   26.8067815   -3.0478676    0.0859879
  H   28.1748076   -0.3054668   -0.0855901
  H   29.2458959   -3.2861554    0.0852984
  H   30.6176693   -0.5455308   -0.0872367
  H   31.6961734   -3.5272928    0.0837053
  H   33.0849525   -0.7981312   -0.0888236
  H   33.8647233   -2.4946038    0.0073441


