%chk=checkpoint.chk
%nprocshared=4
# B3LYP/6-31G(d,p) OPT FREQ 

2poly

0 1
  C   -2.2741495    1.2453994    0.0272666
  C   -1.0290840    1.7242654   -0.0236159
  C    0.1379012    0.8198399    0.0101711
  C    1.3830693    1.2983878   -0.0410003
  H   -3.1185589    1.9265709    0.0011863
  H   -2.4632869    0.1780532    0.0948671
  H   -0.8801209    2.7986737   -0.0909698
  H   -0.0112232   -0.2545200    0.0777240
  H    1.5725840    2.3656431   -0.1088857
  H    2.2272179    0.6168826   -0.0149342