%chk=./chk/21.chk
# B3LYP/6-31G(d,p) OPT FREQ

21poly

0 1
  C  -17.7478465    4.5893920   -0.1126706
  C  -17.4349435    3.7449661    0.8791582
  C  -16.0572519    3.3108973    1.2297360
  C  -14.9409263    3.7114414    0.5961899
  C  -13.6128755    3.2137086    1.0183862
  C  -12.4995904    3.6037799    0.3724411
  C  -11.1175490    3.1574158    0.6950416
  C  -10.7923719    2.3148360    1.6984111
  C   -9.4113943    1.8493785    2.0022449
  C   -8.3098992    2.1922931    1.3113664
  C   -6.9862010    1.6410482    1.6742705
  C   -5.8990241    1.9460451    0.9535841
  C   -4.5773354    1.3663885    1.2728847
  C   -3.5152985    1.6357428    0.5026763
  C   -2.1944817    1.0275830    0.7680992
  C   -1.1663567    1.2609597   -0.0579243
  C    0.1531000    0.6268490    0.1468430
  C    1.1397148    0.8289416   -0.7365002
  C    2.4586079    0.1744585   -0.5970337
  C    3.3964507    0.3599705   -1.5422304
  C    4.7456550   -0.2607329   -1.5609340
  C    5.2408415   -1.0807251   -0.6095916
  C    6.5887227   -1.7186338   -0.6601808
  C    7.4561597   -1.5918804   -1.6870414
  C    8.7949168   -2.2320552   -1.7725446
  C    9.3571900   -3.0073571   -0.8210172
  C   10.7016702   -3.6440503   -0.9355489
  C   11.4982286   -3.5617000   -2.0225990
  C   12.8388356   -4.1878566   -2.1540288
  C   13.4699806   -4.9001274   -1.2045143
  C   14.8131474   -5.4566913   -1.4760317
  C   15.4932086   -6.1435455   -0.5485459
  C   16.8397056   -6.6723307   -0.8528926
  C   17.5576907   -7.3331570    0.0645164
  C   18.9077000   -7.8378608   -0.2640094
  C   19.6553477   -8.4747960    0.6465427
  C   21.0080087   -8.9608357    0.3013977
  C   21.7760276   -9.5791636    1.2078431
  C   23.1303544  -10.0531451    0.8528895
  C   23.9098228  -10.6598589    1.7574235
  C   25.2643298  -11.1277804    1.3977127
  C   26.0487864  -11.7281468    2.2955609
  H  -17.0050215    5.0389041   -0.7587861
  H  -18.2469936    3.3413953    1.4764338
  H  -15.9680304    2.6164924    2.0608443
  H  -14.9893702    4.4013866   -0.2379416
  H  -13.5666008    2.5239795    1.8520976
  H  -12.5963462    4.2925018   -0.4628506
  H  -10.3489616    3.5569328    0.0473711
  H  -11.5617446    1.9173040    2.3467156
  H   -9.3082472    1.1667839    2.8416508
  H   -8.3649754    2.8618496    0.4620786
  H   -6.9015663    0.9634837    2.5207605
  H   -5.9902979    2.6141428    0.0998904
  H   -4.4759906    0.6963274    2.1234126
  H   -3.6288391    2.2954611   -0.3549542
  H   -2.0677544    0.3665192    1.6221946
  H   -1.3086191    1.9118355   -0.9180875
  H    0.3114516   -0.0254075    1.0023542
  H    0.9618984    1.4726120   -1.5955356
  H    2.6361520   -0.4654803    0.2593280
  H    3.1618553    1.0018851   -2.3876909
  H    5.3352478   -0.0105688   -2.4312070
  H    4.6450505   -1.3193414    0.2622912
  H    6.8463215   -2.3287703    0.1958664
  H    7.1975688   -0.9947345   -2.5498127
  H    9.3228536   -2.0283965   -2.6932295
  H    8.8291056   -3.2004883    0.1037790
  H   11.0248976   -4.2077336   -0.0696349
  H   11.1799427   -3.0103593   -2.8957457
  H   13.3374664   -4.0380742   -3.1083574
  H   13.0206754   -5.0722597   -0.2335397
  H   15.2610538   -5.2944142   -2.4541850
  H   15.0601867   -6.3065685    0.4354980
  H   17.2569278   -6.5106724   -1.8445522
  H   17.1517336   -7.4933739    1.0605575
  H   19.3013193   -7.6794552   -1.2657327
  H   19.2700528   -8.6312253    1.6514127
  H   21.3848883   -8.8063035   -0.7072890
  H   21.4044261   -9.7319094    2.2184719
  H   23.4973723   -9.9019835   -0.1599107
  H   23.5461757  -10.8102385    2.7713510
  H   25.6367338  -10.9837913    0.3868834
  H   25.7137074  -11.8897941    3.3158248
  H   27.0407176  -12.0635181    2.0102664
  H  -18.7882447    4.8432188   -0.2888410


  