%chk=./chk/23.chk
# B3LYP/6-31G(d,p) OPT FREQ

23poly

0 1
  C  -22.6974609    4.3986358   -0.1083881
  C  -21.5695684    4.8733218   -0.6425588
  C  -20.2462257    4.4215026   -0.1630178
  C  -19.1185335    4.9040309   -0.7145108
  C  -17.7364029    4.5201572   -0.3190049
  C  -17.4306163    3.6413495    0.6586227
  C  -16.0488071    3.2491482    1.0473029
  C  -14.9213936    3.7088785    0.4755158
  C  -13.5963601    3.2328986    0.9314171
  C  -12.4714127    3.6703060    0.3379023
  C  -11.0912039    3.2412933    0.6903905
  C  -10.7800729    2.3749257    1.6776955
  C   -9.4009327    1.9201047    2.0047822
  C   -8.2879393    2.2906709    1.3471895
  C   -6.9677167    1.7410554    1.7246711
  C   -5.8695492    2.0644457    1.0288647
  C   -4.5522139    1.4805258    1.3579305
  C   -3.4800890    1.7594693    0.6051061
  C   -2.1651470    1.1413242    0.8762446
  C   -1.1289583    1.3751411    0.0603368
  C    0.1824946    0.7253311    0.2669937
  C    1.1735570    0.9183813   -0.6134722
  C    2.4819061    0.2427010   -0.4761147
  C    3.4189793    0.4098769   -1.4254764
  C    4.7552184   -0.2376822   -1.4502968
  C    5.2431201   -1.0591230   -0.4964178
  C    6.5763590   -1.7266351   -0.5563653
  C    7.4261912   -1.6407509   -1.6019567
  C    8.7485600   -2.3117299   -1.6999610
  C    9.3194451   -3.0693082   -0.7393578
  C   10.6483137   -3.7357887   -0.8690323
  C   11.4087147   -3.7148173   -1.9845444
  C   12.7343535   -4.3675407   -2.1334739
  C   13.3937717   -5.0376937   -1.1727396
  C   14.7201316   -5.6221775   -1.4673023
  C   15.4370761   -6.2578195   -0.5312345
  C   16.7678580   -6.8093573   -0.8632947
  C   17.5305627   -7.4092344    0.0597618
  C   18.8656995   -7.9317240   -0.3004368
  C   19.6640778   -8.4990309    0.6129606
  C   21.0024120   -8.9988526    0.2331849
  C   21.8251788   -9.5409740    1.1402619
  C   23.1654764  -10.0260901    0.7488150
  C   24.0019016  -10.5526201    1.6526264
  C   25.3424701  -11.0304502    1.2555622
  C   26.1843422  -11.5495401    2.1520424
  H  -22.6753181    3.6670660    0.6939890
  H  -21.6356266    5.6037426   -1.4445417
  H  -20.2157642    3.6934068    0.6381600
  H  -19.2019680    5.6310853   -1.5181320
  H  -16.9500873    5.0027129   -0.8838158
  H  -18.2172412    3.1597927    1.2238795
  H  -15.9660981    2.5261616    1.8545425
  H  -14.9547380    4.4259116   -0.3353670
  H  -13.5616257    2.5155102    1.7419874
  H  -12.5563157    4.3830629   -0.4782385
  H  -10.3114923    3.6728911    0.0774462
  H  -11.5604656    1.9460961    2.2920784
  H   -9.3094393    1.2177123    2.8290081
  H   -8.3313240    2.9782338    0.5117882
  H   -6.8948344    1.0464264    2.5582494
  H   -5.9490451    2.7475624    0.1860331
  H   -4.4628236    0.7963915    2.1984503
  H   -3.5818143    2.4312282   -0.2445377
  H   -2.0502605    0.4694459    1.7234571
  H   -1.2598897    2.0347733   -0.7948644
  H    0.3299371    0.0658527    1.1188201
  H    1.0056469    1.5672844   -1.4705021
  H    2.6508937   -0.4004841    0.3795118
  H    3.1920203    1.0535626   -2.2716285
  H    5.3413077   -0.0066406   -2.3282138
  H    4.6522756   -1.2758515    0.3845961
  H    6.8367249   -2.3256079    0.3067683
  H    7.1629276   -1.0583352   -2.4732576
  H    9.2573132   -2.1455367   -2.6387505
  H    8.8123217   -3.2213023    0.2047878
  H   10.9909705   -4.2686081    0.0089609
  H   11.0693455   -3.1979049   -2.8705958
  H   13.1979146   -4.2731632   -3.1123108
  H   12.9815956   -5.1516461   -0.1769109
  H   15.1268263   -5.5201489   -2.4713273
  H   15.0480322   -6.3585916    0.4791706
  H   17.1379668   -6.7120830   -1.8817652
  H   17.1740758   -7.5030668    1.0828399
  H   19.2074711   -7.8415633   -1.3293437
  H   19.3323662   -8.5854833    1.6450415
  H   21.3241166   -8.9157185   -0.8026943
  H   21.5098348   -9.6210820    2.1780193
  H   23.4753580   -9.9484516   -0.2910506
  H   23.6959285  -10.6287683    2.6935327
  H   25.6571723  -10.9605856    0.2176263
  H   25.9078719  -11.6355734    3.1987017
  H   27.1648159  -11.8936202    1.8388555
  H  -23.6584608    4.7434412   -0.4762058


  