%chk=./chk/24.chk
# B3LYP/6-31G(d,p) OPT FREQ

24poly

0 1
  C  -25.1490354    4.1486373   -0.2032369
  C  -24.0299371    4.6784311   -0.7025277
  C  -22.7011118    4.2456235   -0.2238535
  C  -21.5797283    4.7768573   -0.7293852
  C  -20.2496205    4.3412749   -0.2521732
  C  -19.1279423    4.8718859   -0.7712662
  C  -17.7414662    4.5051244   -0.3738381
  C  -17.4274031    3.5984009    0.5750918
  C  -16.0426067    3.2210365    0.9661684
  C  -14.9177369    3.7205040    0.4234363
  C  -13.5907014    3.2519649    0.8810286
  C  -12.4643176    3.7236664    0.3171126
  C  -11.0833531    3.3017195    0.6767049
  C  -10.7761954    2.4118282    1.6441488
  C   -9.3977509    1.9619797    1.9789984
  C   -8.2788814    2.3581407    1.3470103
  C   -6.9609914    1.8073966    1.7307104
  C   -5.8541159    2.1503289    1.0586050
  C   -4.5409381    1.5610759    1.3945660
  C   -3.4584042    1.8528929    0.6619236
  C   -2.1493155    1.2251923    0.9391714
  C   -1.1029216    1.4646021    0.1381766
  C    0.2009614    0.8010393    0.3487174
  C    1.1998232    0.9920657   -0.5232162
  C    2.4987287    0.2986245   -0.3852874
  C    3.4392492    0.4562738   -1.3327334
  C    4.7645710   -0.2128215   -1.3601512
  C    5.2425639   -1.0401697   -0.4063137
  C    6.5634900   -1.7313928   -0.4719759
  C    7.4013322   -1.6741370   -1.5290588
  C    8.7098254   -2.3698622   -1.6356685
  C    9.2854748   -3.1168859   -0.6697066
  C   10.6010514   -3.8074017   -0.8103264
  C   11.3324599   -3.8332063   -1.9449654
  C   12.6453819   -4.5075373   -2.1068412
  C   13.3270486   -5.1458516   -1.1401056
  C   14.6393189   -5.7529755   -1.4513152
  C   15.3853430   -6.3485907   -0.5117428
  C   16.7030527   -6.9188212   -0.8637051
  C   17.5009188   -7.4698273    0.0600066
  C   18.8238147   -8.0071031   -0.3228575
  C   19.6619153   -8.5175330    0.5884281
  C   20.9885787   -9.0289134    0.1839149
  C   21.8540453   -9.5080107    1.0866593
  C   23.1830048  -10.0025123    0.6691698
  C   24.0637401  -10.4622614    1.5672654
  C   25.3930993  -10.9484622    1.1435677
  C   26.2795962  -11.3996706    2.0337248
  H  -25.1138181    3.3851535    0.5684174
  H  -24.1067339    5.4397877   -1.4741328
  H  -22.6378080    3.4832318    0.5493585
  H  -21.6451813    5.5379909   -1.5036258
  H  -20.2092731    3.5836408    0.5204880
  H  -19.2199415    5.6267279   -1.5478162
  H  -16.9593130    5.0246630   -0.9111898
  H  -18.2091629    3.0800723    1.1137738
  H  -15.9551586    2.4728831    1.7496425
  H  -14.9548995    4.4631207   -0.3640453
  H  -13.5559305    2.5100190    1.6689974
  H  -12.5483739    4.4597457   -0.4780999
  H  -10.2997297    3.7589104    0.0875258
  H  -11.5597061    1.9575927    2.2356765
  H   -9.3118080    1.2393648    2.7861765
  H   -8.3160417    3.0657702    0.5281105
  H   -6.8968498    1.0938797    2.5489395
  H   -5.9233793    2.8512858    0.2296960
  H   -4.4633059    0.8602424    2.2224180
  H   -3.5475538    2.5399790   -0.1767541
  H   -2.0476987    0.5393316    1.7768264
  H   -1.2205991    2.1366279   -0.7092318
  H    0.3353502    0.1306973    1.1941932
  H    1.0441736    1.6501935   -1.3754966
  H    2.6567309   -0.3519740    0.4668573
  H    3.2223594    1.1059701   -2.1769216
  H    5.3511233    0.0071341   -2.2405867
  H    4.6526448   -1.2434557    0.4785790
  H    6.8235145   -2.3252300    0.3948915
  H    7.1365877   -1.0999398   -2.4053066
  H    9.2046743   -2.2305117   -2.5861462
  H    8.7940226   -3.2388866    0.2870941
  H   10.9584945   -4.3179526    0.0750517
  H   10.9766087   -3.3416300   -2.8388784
  H   13.0807013   -4.4560456   -3.1017343
  H   12.9448120   -5.2144411   -0.1282332
  H   15.0129170   -5.6985241   -2.4718075
  H   15.0314949   -6.3997792    0.5151839
  H   17.0356032   -6.8733783   -1.8986587
  H   17.1837291   -7.5098088    1.0994069
  H   19.1245547   -7.9727634   -1.3678493
  H   19.3724751   -8.5464142    1.6363205
  H   21.2668820   -9.0048569   -0.8674897
  H   21.5828502   -9.5277876    2.1396816
  H   23.4481206   -9.9861407   -0.3857433
  H   23.8028919  -10.4764325    2.6230384
  H   25.6626706  -10.9405619    0.0907089
  H   26.0489256  -11.4224526    3.0946666
  H   27.2509046  -11.7511024    1.7007672
  H  -26.1157006    4.4798682   -0.5686079


  