%chk=./chk/26.chk
# B3LYP/6-31G(d,p) OPT FREQ

26poly

0 1
  C  -30.0107426    3.7199556   -0.1927158
  C  -28.9121385    4.3012859   -0.6800734
  C  -27.5665144    3.8756538   -0.2441276
  C  -26.4656705    4.4606603   -0.7346610
  C  -25.1210840    4.0333466   -0.2957534
  C  -24.0171530    4.6152258   -0.7832515
  C  -22.6760166    4.1833391   -0.3383677
  C  -21.5665985    4.7587950   -0.8216728
  C  -20.2289803    4.3197370   -0.3697052
  C  -19.1143113    4.8927153   -0.8581596
  C  -17.7239300    4.5251536   -0.4735036
  C  -17.4030260    3.5736654    0.4280908
  C  -16.0171356    3.1966750    0.8128336
  C  -14.8937905    3.7416283    0.3127078
  C  -13.5674991    3.2687565    0.7674995
  C  -12.4373486    3.7859603    0.2532420
  C  -11.0582777    3.3648822    0.6225168
  C  -10.7612725    2.4305499    1.5504435
  C   -9.3859423    1.9832335    1.8984868
  C   -8.2563243    2.4273810    1.3201335
  C   -6.9432301    1.8731976    1.7142684
  C   -5.8207459    2.2604380    1.0943978
  C   -4.5139793    1.6639638    1.4414286
  C   -3.4120758    1.9921527    0.7547563
  C   -2.1116376    1.3511803    1.0408994
  C   -1.0451475    1.6147006    0.2750325
  C    0.2467158    0.9299412    0.4899555
  C    1.2622103    1.1297656   -0.3602398
  C    2.5444904    0.4063130   -0.2236821
  C    3.4943047    0.5565431   -1.1627489
  C    4.7993369   -0.1504190   -1.1960113
  C    5.2552833   -0.9957176   -0.2471140
  C    6.5520145   -1.7299187   -0.3238999
  C    7.3689024   -1.7182114   -1.3985246
  C    8.6499544   -2.4598042   -1.5205506
  C    9.2308976   -3.1943665   -0.5483901
  C   10.5197850   -3.9296551   -0.7073959
  C   11.1980498   -4.0356423   -1.8700283
  C   12.4861258   -4.7503801   -2.0527875
  C   13.2061191   -5.3357905   -1.0806431
  C   14.4919838   -5.9843963   -1.4165099
  C   15.2875043   -6.5105483   -0.4763038
  C   16.5817516   -7.1149573   -0.8565393
  C   17.4387523   -7.5787714    0.0618758
  C   18.7406170   -8.1429038   -0.3526659
  C   19.6446548   -8.5502508    0.5472636
  C   20.9519549   -9.0824066    0.1083231
  C   21.8874533   -9.4463952    0.9946972
  C   23.1980168   -9.9575793    0.5409632
  C   24.1508252  -10.2950052    1.4194946
  C   25.4621981  -10.7959828    0.9587199
  C   26.4210238  -11.1227893    1.8279997
  H  -29.9457550    2.9183293    0.5372233
  H  -29.0184457    5.1002054   -1.4089857
  H  -27.4735118    3.0751272    0.4864239
  H  -26.5582830    5.2611397   -1.4651356
  H  -25.0311224    3.2332028    0.4355712
  H  -24.1045548    5.4153505   -1.5147005
  H  -22.5933599    3.3838199    0.3944805
  H  -21.6474701    5.5578092   -1.5550850
  H  -20.1781402    3.5241302    0.3628354
  H  -19.2157165    5.6860081   -1.5940620
  H  -16.9453699    5.0838107   -0.9760804
  H  -18.1799741    3.0155857    0.9325728
  H  -15.9274201    2.4093179    1.5566676
  H  -14.9321885    4.5253717   -0.4339605
  H  -13.5366423    2.4867076    1.5156110
  H  -12.5162585    4.5624382   -0.5030345
  H  -10.2672217    3.8627491    0.0776378
  H  -11.5513063    1.9351428    2.0983930
  H   -9.3112458    1.2205090    2.6690704
  H   -8.2809743    3.1764964    0.5384066
  H   -6.8947279    1.1193473    2.4966598
  H   -5.8719757    3.0010043    0.2994126
  H   -4.4567399    0.9251069    2.2372899
  H   -3.4791270    2.7153292   -0.0550520
  H   -2.0336353    0.6316113    1.8524192
  H   -1.1386918    2.3175219   -0.5500417
  H    0.3566234    0.2318109    1.3162710
  H    1.1302313    1.8122792   -1.1971537
  H    2.6799098   -0.2650765    0.6161396
  H    3.2982747    1.2239389   -1.9981570
  H    5.3897285    0.0560844   -2.0772046
  H    4.6647780   -1.1814974    0.6412885
  H    6.8086131   -2.3204951    0.5463234
  H    7.1033595   -1.1528490   -2.2802686
  H    9.1210273   -2.3642621   -2.4883816
  H    8.7672649   -3.2669729    0.4272706
  H   10.9023811   -4.4048133    0.1872031
  H   10.8131413   -3.5848228   -2.7733351
  H   12.8708365   -4.7729614   -3.0694044
  H   12.8774657   -5.3254699   -0.0478068
  H   14.8076564   -6.0135092   -2.4574367
  H   14.9946601   -6.4737068    0.5702663
  H   16.8501966   -7.1620598   -1.9099003
  H   17.1880652   -7.5218129    1.1185186
  H   18.9727755   -8.2093820   -1.4134970
  H   19.4253586   -8.4746039    1.6097597
  H   21.1588969   -9.1657659   -0.9564490
  H   21.6884614   -9.3561650    2.0600960
  H   23.3903224  -10.0529436   -0.5254965
  H   23.9631476  -10.1960122    2.4862143
  H   25.6587409  -10.9011818   -0.1050240
  H   26.2643742  -11.0300624    2.8986049
  H   27.3776650  -11.4872760    1.4677631
  H  -30.9904499    4.0471224   -0.5255014


  