%chk=./chk/3.chk
# B3LYP/6-31G(d,p) OPT FREQ

3poly

0 1
  C   20.9274430   -9.0358652    0.4358306
  C   21.5344486   -9.8149145    1.3340769
  C   22.9651020  -10.1593151    1.2034403
  C   23.5699977  -10.9418745    2.1067452
  C   25.0006044  -11.2864311    1.9760091
  C   25.6072966  -12.0665054    2.8735773
  H   21.4680441   -8.6335215   -0.4158744
  H   20.9590636  -10.1981268    2.1725872
  H   23.5309735   -9.7696851    0.3601598
  H   23.0040942  -11.3316072    2.9499568
  H   25.5761729  -10.9026213    1.1378981
  H   25.0664626  -12.4696060    3.7247765
  H   26.6591532  -12.3077795    2.7591997
  H   19.8755259   -8.7947941    0.5500795


  