%chk=checkpoint.chk
%nprocshared=4
# B3LYP/6-31G(d,p) OPT FREQ 

3poly

0 1
  C   -2.2474469    1.2365066    0.0177840
  C   -1.0078935    1.7301203   -0.0280139
  C    0.1703924    0.8400916    0.0157663
  C    1.4124992    1.3393778   -0.0306519
  C    2.5905395    0.4489957    0.0130487
  C    3.8303167    0.9419743   -0.0331589
  H   -3.0997525    1.9074354   -0.0156618
  H   -2.4243551    0.1672794    0.0884865
  H   -0.8722069    2.8060426   -0.0987105
  H    0.0221495   -0.2351436    0.0866491
  H    1.5608756    2.4146009   -0.1015772
  H    2.4544162   -0.6268559    0.0839568
  H    4.0078110    2.0110742   -0.1041450
  H    4.6822303    0.2705293    0.0001857


  