%chk=./chk/../chk/../chk/../chk/../chk/8.chk
# B3LYP/6-31G(d,p) OPT FREQ

8poly

0 1
  C   10.8685355   -3.5371002   -1.3080533
  C   11.7352205   -3.2564647   -2.2902147
  C   13.1280893   -3.7684758   -2.3730393
  C   13.7023110   -4.5826588   -1.4703021
  C   15.0984740   -5.0365689   -1.6465719
  C   15.6779685   -5.8487339   -0.7523627
  C   17.0730400   -6.3026868   -0.9301105
  C   17.6516323   -7.1162781   -0.0369205
  C   19.0461748   -7.5715561   -0.2152480
  C   19.6238145   -8.3870204    0.6768499
  C   21.0178415   -8.8436474    0.4979319
  C   21.5946240   -9.6608176    1.3890328
  C   22.9882576  -10.1184993    1.2096600
  C   23.5644652  -10.9367796    2.1000451
  C   24.9574525  -11.3945614    1.9199887
  C   25.5354007  -12.2104917    2.8045511
  H   11.1157635   -4.1765928   -0.4706443
  H   11.3999961   -2.6046877   -3.0913886
  H   13.7081972   -3.4494127   -3.2348287
  H   13.1581097   -4.9235414   -0.5975026
  H   15.6602675   -4.7045187   -2.5167589
  H   15.1173700   -6.1818950    0.1181358
  H   17.6340386   -5.9696072   -1.8003978
  H   17.0904427   -7.4497116    0.8331123
  H   19.6075360   -7.2379630   -1.0851069
  H   19.0622314   -8.7209668    1.5464322
  H   21.5795789   -8.5095368   -0.3714853
  H   21.0327125   -9.9952151    2.2582303
  H   23.5504030   -9.7840747    0.3406098
  H   23.0029392  -11.2718573    2.9692545
  H   25.5284013  -11.0663957    1.0555018
  H   24.9980332  -12.5604980    3.6810584
  H   26.5598282  -12.5353046    2.6537584
  H    9.8705310   -3.1118159   -1.3396274


  