%chk=checkpoint.chk
%nprocshared=4
# B3LYP/6-31G(d,p) OPT FREQ 

9poly

0 1
  C   -2.3202793    1.0909297    0.0160105
  C   -1.1100228    1.6529401   -0.0251107
  C    0.1157682    0.8296133    0.0177124
  C    1.3285040    1.3970826   -0.0237129
  C    2.5541706    0.5727142    0.0191841
  C    3.7678308    1.1383167   -0.0221307
  C    4.9917244    0.3113325    0.0208787
  C    6.2068800    0.8736616   -0.0204368
  C    7.4281648    0.0427877    0.0226201
  C    8.6452762    0.6007788   -0.0189466
  C    9.8634493   -0.2347306    0.0240334
  C   11.0826508    0.3185590   -0.0180517
  C   12.2977681   -0.5214808    0.0247408
  C   13.5187984    0.0276621   -0.0179890
  C   14.7315282   -0.8158979    0.0245888
  C   15.9537552   -0.2695847   -0.0186786
  C   17.1643915   -1.1152712    0.0237745
  C   18.3849025   -0.5762161   -0.0193613
  H   -3.2085490    1.7134933   -0.0165881
  H   -2.4375699    0.0132178    0.0820645
  H   -1.0342018    2.7350060   -0.0911824
  H    0.0269876   -0.2524765    0.0838412
  H    1.4168541    2.4791610   -0.0898376
  H    2.4646757   -0.5093047    0.0852898
  H    3.8583036    2.2202072   -0.0882602
  H    4.8995897   -0.7704664    0.0870272
  H    6.3004646    1.9552830   -0.0866633
  H    7.3324004   -1.0386869    0.0889355
  H    8.7427614    1.6820433   -0.0854028
  H    9.7636189   -1.3158163    0.0906498
  H   11.1841615    1.3994330   -0.0848483
  H   12.1941959   -1.6021866    0.0917296
  H   13.6236863    1.1081900   -0.0851483
  H   14.6254034   -1.8963460    0.0919093
  H   16.0615220    0.8106552   -0.0861136
  H   17.0686075   -2.1957160    0.0911977
  H   18.5224178    0.4989588   -0.0868488
  H   19.2612196   -1.2155577    0.0129949


  