%nproc=4
%Mem=2Gb
# TD=(NStates=1) B3LYP/6-31G(d,p)  

EMISPCT

0 1
6   0.36111957977290  1.36612763414127  -0.11743363507321
6   1.32354083364930  0.39368964254073  0.03942332754607
6   1.00854666340041  -1.03388827224216  0.06858385512957
6   -0.32215331396203  -1.35990585431779  -0.07131930563904
6   -1.34887562861964  -0.36077525978864  -0.00974365487578
6   -1.04834212365491  0.96351393553124  0.01376486846815
1   0.80713002767307  2.39444591889852  -0.00116967204450
1   -1.74929829122018  1.96218034503417  0.61650848484942
1   -2.51436452806649  -0.56391494041318  0.31503031397960
1   -0.44508017607698  -2.50972392945963  -0.10209330826025
1   1.76854542243526  -1.74862776519102  0.02992475537270
1   2.42604761988527  0.84579447564811  0.19035753350779





