%nproc=4
%Mem=2Gb
# TD=(NStates=1) B3LYP/6-31G(d,p)  

EMISPCT

0 1
6   0.36362342106016  1.39258397345287  0.11964846866802
6   1.41899647341176  0.43203145073521  -0.04945212837572
6   1.01621732366899  -1.00456453873857  0.02976722718663
6   -0.36132867916155  -1.37270753695592  -0.04664192228574
6   -1.40532277569652  -0.37843096555280  0.03469195918334
6   -1.02839471879990  0.94282517620507  -0.08692262179014
1   0.55174859053721  2.43797577177153  0.17315390310865
1   -1.81092363539921  1.76653972877292  -0.19416137163872
1   -2.35749749428728  -0.62903810705448  0.16331975102878
1   -0.61364281496998  -2.45927328865687  0.10696346147567
1   1.64239367871465  -1.88935480085604  0.17535082012998
1   2.56353665991138  0.62595509869839  -0.43954732611842





