%nproc=4
%Mem=2Gb
# TD=(NStates=1) B3LYP/6-31G(d,p)  

EMISPCT

0 1
6   0.38463841472218  1.35632606530033  0.06658751478081
6   1.39625018639570  0.42655921866842  -0.08764944368075
6   1.00760423407517  -0.94929987153674  0.05163352507047
6   -0.39722666494138  -1.42839240376903  0.05607769713301
6   -1.40719647531701  -0.38247330566435  -0.05936242171560
6   -0.99420725796749  0.96490738233916  0.00127610711271
1   0.79510354145354  2.40286645648707  0.14896067558016
1   -1.76028389095133  1.74907037897874  0.16285162000990
1   -2.42840005405094  -0.76484957176407  -0.37523369515581
1   -0.66484410065363  -2.49605544107453  0.03396021296952
1   1.73502897184702  -1.59973517077947  0.01425939234780
1   2.46551783429915  0.86218702418689  -0.37516958132719





