%nproc=4
%Mem=2Gb
# TD=(NStates=1) B3LYP/6-31G(d,p)  

EMISPCT

0 1
6   0.33827515404407  1.38335689329137  -0.01758323794516
6   1.41795467637770  0.35669731621232  -0.00747797871528
6   1.01572557731558  -0.99851380738315  0.03275325075028
6   -0.33965881850970  -1.37166815830425  0.02349607260805
6   -1.40134497307719  -0.38491065425257  -0.01005486034098
6   -1.02790954566775  1.02091366256979  0.00380348362787
1   0.55830481891193  2.41323359579330  0.12218636659470
1   -1.83844977852091  1.73810530480285  -0.00007332958624
1   -2.46286705224312  -0.80234729311437  -0.04467787706001
1   -0.57433314983680  -2.37110107039065  -0.16306717071670
1   1.79828632225460  -1.78940787752340  -0.17506132326338
1   2.47024476919213  0.74162018149841  -0.08011930909380





