%nproc=4
%Mem=2Gb
# TD=(NStates=1) B3LYP/6-31G(d,p)  

EMISPCT

0 1
6   0.37559300685761  1.40550548166042  0.00204031643001
6   1.30779388488335  0.41119134815014  -0.00183654619067
6   1.03176294706036  -1.05194595185077  0.02623393220308
6   -0.35337847003936  -1.38007710976704  0.04255710419561
6   -1.32223765679501  -0.38059621868887  -0.04513599108319
6   -0.98350529604962  1.01084742403343  0.01529165720769
1   0.43068019330489  2.48504005812183  -0.17859021637864
1   -1.99112665457501  1.55125553741742  0.13732511217791
1   -2.32222305674697  -0.80781803165087  -0.04849348990723
1   -0.99300487464298  -2.37846392866266  -0.16296999441795
1   1.76079822294527  -1.71436388838652  -0.22931847964408
1   2.50709140572920  0.63324291691036  -0.05302005958454





