%nproc=4
%Mem=2Gb
# TD=(NStates=1) B3LYP/6-31G(d,p)  

EMISPCT

0 1
6   0.30348808215376  1.42807378492495  0.02009173271542
6   1.32489054062053  0.38684060455459  -0.05182828941763
6   1.01297557797530  -1.04139311996229  0.04241314138799
6   -0.35578821099288  -1.43792262623332  -0.00278518721354
6   -1.30685655870151  -0.39801128680278  0.03585781783384
6   -1.01911937775351  1.03122064849464  0.02055316280281
1   0.85614763562140  2.42359402716892  -0.25476515787717
1   -1.53795532495459  1.84682431255188  -0.13468959717357
1   -2.38990530585412  -0.58749333743312  -0.14434029481198
1   -0.77653109503419  -2.51939924422014  -0.52453672257067
1   1.85356221578596  -1.67627352841002  0.16873494232366
1   2.44950183828679  0.89923529449720  0.01078699595479





