%nproc=4
%Mem=2Gb
# TD=(NStates=1) B3LYP/6-31G(d,p)  

EMISPCT

0 1
6   0.36402090586121  1.39896497014657  0.03671290296202
6   1.38368545629640  0.34094547110664  -0.06290231966285
6   0.96287094975608  -0.91162077694761  0.07052354338745
6   -0.36771137558655  -1.36449945035193  0.00380306602278
6   -1.36779546357912  -0.39904860792218  0.02256014707296
6   -0.98091294239832  0.93713104131693  -0.01994175342508
1   0.61278425267512  2.49700703180667  0.17931697329887
1   -1.79247237412530  1.80927444507532  -0.02776414385078
1   -2.44568989595906  -0.79552793491249  -0.34000332021361
1   -0.58308383389207  -2.53905724510483  -0.11019772160729
1   1.70635460293485  -1.73132495903292  -0.10788508287611
1   2.53755407327069  0.74333136911325  -0.28713705163384





