%nproc=4
%Mem=2Gb
# TD=(NStates=1) B3LYP/6-31G(d,p)  

EMISPCT

0 1
6   0.32979447391902  1.38708357990486  -0.04888643823381
6   1.32431173569318  0.36784138811226  0.00509251790884
6   1.06640028794645  -1.01045887597120  0.06112993350768
6   -0.31647220306497  -1.45302438220467  0.01565497644144
6   -1.35818746801835  -0.37356132203453  -0.05500903874017
6   -1.02076486351229  1.08369799869429  0.07310443494457
1   0.76815141702575  2.44641726171613  -0.24809079517606
1   -1.86411187118993  1.86642683759536  0.20649696100693
1   -2.38397045301535  -0.78784259372025  -0.13861303521087
1   -0.91188614306401  -2.49962340602726  -0.25745324536722
1   1.86109017950257  -1.79978153138841  -0.13971544904133
1   2.26276876213665  0.74726158029945  -0.12081570920176





