%nproc=4
%Mem=2Gb
# TD=(NStates=1) B3LYP/6-31G(d,p)  

EMISPCT

0 1
6   0.34952758769346  1.32944542698974  0.02696506879040
6   1.45867102832508  0.38160166745742  -0.01131753247039
6   1.05447036729943  -0.99539811297760  0.04274627734351
6   -0.36428259616349  -1.24626446325098  -0.00008282382113
6   -1.43089779026462  -0.40110324995801  -0.04219243362488
6   -1.03434203244807  0.94927081443385  -0.03784246420942
1   0.43491883136675  2.44106966014866  -0.26798279267049
1   -1.86168396126443  1.58592570966818  0.28670268975046
1   -2.36618101126687  -0.66701911164714  0.53182867129835
1   -0.58955205522176  -2.33481571597564  -0.30256550315594
1   1.57139422708888  -1.99329792818378  -0.06664815957076
1   2.42439328469665  0.72196041043632  0.11554783690455





