%nproc=4
%Mem=2Gb
# TD=(NStates=1) B3LYP/6-31G(d,p)  

EMISPCT

0 1
6   0.33073333863277  1.39026662576024  -0.08794117104665
6   1.35946323775494  0.32288623165258  0.11027396987811
6   1.03807138200625  -0.98050775300076  -0.01995901362185
6   -0.34383797609024  -1.37817156168954  -0.08898645349811
6   -1.40337613495380  -0.38586724220696  0.10489013888181
6   -1.01118977049952  1.04447154915303  0.02102641191536
1   0.65663481316818  2.45668295989546  -0.27171760414787
1   -1.83814881418900  1.77886609436413  -0.23599532064914
1   -2.42969102674100  -0.71191981351691  0.07128962128293
1   -0.33895835081548  -2.49709653441869  -0.17854922373644
1   1.90635565636830  -1.70558956034127  -0.04606044753398
1   2.36750762951691  0.57142975441220  0.12386924716605





