%nproc=4
%Mem=2Gb
# TD=(NStates=1) B3LYP/6-31G(d,p)  

EMISPCT

0 1
6   0.34911741498365  1.34165720573830  -0.00561090712657
6   1.42794511562583  0.38027457985954  0.00980611347568
6   1.05103040745600  -0.96839023837363  -0.00198998767750
6   -0.41930509678460  -1.37937482983621  -0.03683916642771
6   -1.39815426238307  -0.38320771734356  0.04275369954577
6   -1.02245717109314  0.99221434257123  -0.04238805506487
1   0.48884641600190  2.54979798288485  0.03047240775687
1   -1.67322231780686  1.77271833366902  0.07582398851233
1   -2.60312004716166  -0.61946095525351  0.11854366501762
1   -0.44463818362918  -2.52432958839060  0.09982584101677
1   1.95897269250949  -1.71711543326465  -0.05517267174673
1   2.40812720579449  0.73854463117859  0.19882958087078





