%nproc=4
%Mem=2Gb
# TD=(NStates=1) B3LYP/6-31G(d,p)  

EMISPCT

0 1
6   0.32817974053590  1.33648609609732  -0.05456373504832
6   1.28219004903445  0.40718518041789  -0.05000269024829
6   1.01776363378477  -1.01285862646516  0.08678258444169
6   -0.33575977093701  -1.39901105415348  -0.06047788232596
6   -1.33269983164785  -0.39622846289430  -0.04422334345680
6   -0.98565801108981  1.02701121079754  0.11781781265434
1   0.62334220848482  2.51090417454939  -0.04017949756631
1   -1.61586161225946  1.90410450503698  -0.02635855193158
1   -2.42604195507935  -0.52396952230753  0.03555114032608
1   -0.70406194691480  -2.46446168051686  -0.16606953030339
1   1.93946818550264  -1.63100678624087  0.35068470338279
1   2.50849987482590  0.65698005754190  -0.08985312613540





