%nproc=4
%Mem=2Gb
# TD=(NStates=1) B3LYP/6-31G(d,p)  

EMISPCT

0 1
6   0.35263872025995  1.36796993886460  -0.07256680018928
6   1.33055853478918  0.39328257613000  0.02053926396118
6   1.08871892692958  -1.05369809529176  -0.00600073454821
6   -0.37403028015972  -1.36321689637576  -0.04897183189679
6   -1.36429020885166  -0.30569165330141  0.05714111749608
6   -1.04899250029815  0.96746626204516  0.04055267987641
1   0.75096899648118  2.43585254209588  0.05145946682800
1   -1.90022578143283  1.66529947695556  -0.35166789579579
1   -2.34210944717666  -0.72469691967805  0.23046851211744
1   -0.70481391577134  -2.48983919853358  -0.25828855215877
1   1.95791420962367  -1.64470817228816  0.13900859611336
1   2.45481931376625  0.69649761949731  0.31619537867065





