%nproc=4
%Mem=2Gb
# TD=(NStates=1) B3LYP/6-31G(d,p)  

EMISPCT

0 1
6   0.37596035173632  1.34915001622686  -0.11826232653848
6   1.34614813620803  0.36119682967387  0.03194188518018
6   1.03639242936504  -0.95576750699381  0.04668561945765
6   -0.33745659438279  -1.33965664973890  -0.09211052242899
6   -1.38127094125114  -0.37635687642926  -0.02415011919397
6   -1.02387195286775  0.93602607042610  0.10255296861686
1   0.47475475761750  2.54068136474614  -0.34367910697862
1   -1.84598686271433  1.77850167334900  0.42586686512686
1   -2.36254659558706  -0.51142803719321  0.03943763359230
1   -0.70427564203919  -2.27907714295551  0.14757645815644
1   1.82232942629551  -1.86963277830673  0.12428148924183
1   2.44785008556864  0.60800861143131  0.33552009125343





