%nproc=4
%Mem=2Gb
# TD=(NStates=1) B3LYP/6-31G(d,p)  

EMISPCT

0 1
6   0.37665418744956  1.35144443524145  0.01257700893121
6   1.34210592934926  0.41589668435713  -0.05188619554672
6   1.05347178037561  -0.99508367669598  0.03481733452762
6   -0.36741457389597  -1.40690129318167  0.04551589254602
6   -1.41011108644223  -0.39254514980161  -0.05670048705748
6   -0.98820402069206  1.04116298094117  0.02640828748776
1   0.62869602605919  2.43395590477511  0.41407685867740
1   -1.78541554993997  1.77226522569110  -0.03707537091596
1   -2.37033656233742  -0.80194502172496  -0.28616409787853
1   -0.73995308224596  -2.57113017524978  0.17240403441436
1   1.88862131988330  -1.74432226006968  -0.06492554510336
1   2.34163530543381  0.76236711545451  -0.34499503800220





