%nproc=4
%Mem=2Gb
# TD=(NStates=1) B3LYP/6-31G(d,p)  

EMISPCT

0 1
6   0.30099934700697  1.35628833773517  0.06770418463638
6   1.35579545678568  0.37821635670916  -0.03629366680159
6   1.02070065817252  -1.01751945939661  -0.03463281674070
6   -0.32252917012937  -1.35146830676357  0.06074752893956
6   -1.31523150778251  -0.37392480031355  0.01741237993379
6   -1.05496843230365  1.01708274051431  -0.06069092963330
1   0.74566118038649  2.35961319807790  0.13673643141765
1   -1.70830236313219  1.75937473602995  -0.27467888453326
1   -2.48281807337899  -0.57675419496272  0.06239244361928
1   -0.47484194793745  -2.33530730500541  -0.10205648400200
1   1.69486392552108  -1.93887944450144  -0.14647006432829
1   2.38640109612539  0.64467296255822  0.12936125992671





