%nproc=4
%Mem=2Gb
# TD=(NStates=1) B3LYP/6-31G(d,p)  

EMISPCT

0 1
6   0.30934858287699  1.38231694711190  -0.00926753795554
6   1.34712079424968  0.38796078464068  0.04001786867385
6   1.00986459477896  -1.04575368990703  -0.06838750376698
6   -0.32043782919894  -1.39584651379589  0.07559853017546
6   -1.32989196334290  -0.38973936820599  -0.04420889066057
6   -0.99372728541322  1.04817765131399  0.01002987971496
1   0.80197141953735  2.39849090013216  0.04050611766602
1   -2.03958835307089  1.70435808474727  -0.29696872851263
1   -2.45293024479542  -0.58134627740869  0.31916371826745
1   -0.63039503460031  -2.42005923539013  -0.09696378661741
1   1.69425904403196  -1.78910273484496  -0.20308701305417
1   2.37063355791438  0.80818344767741  0.18564696110788





